@RELATION mood_classification

@ATTRIBUTE "Pitch" NUMERIC
@ATTRIBUTE "Speech Rate" NUMERIC
@ATTRIBUTE "Speech Duration" NUMERIC
@ATTRIBUTE "Mood" {0,1,2,3,4,5,6,7,8,9}

@DATA
138.88,77,18.02,8
284.85,165,3.66,9
179.56,117,8.93,7
218.57,132,12.41,5
153.69,63,12.32,1
247.33,127,11.4,5
209.33,179,6.89,6
337.83,160,8.74,0
244.97,132,8.06,6
251.94,154,7.5,9
248.81,128,8.27,6
289.91,159,5.5,9
129.21,65,17.35,1
223.78,159,10.15,4
273.82,159,10.59,0
123.77,71,13.39,1
157.53,107,8.08,3
302.32,171,9.43,0
245.49,155,9.1,6
220.01,182,6.14,4
223.79,147,5.68,6
233.18,139,14.79,5
154.72,106,12.62,7
179.92,113,13.88,3
258.8,193,10.8,0
149.49,53,12.59,1
214.87,147,9.17,6
215.74,132,14.66,5
287.51,142,7.4,0
216.0,148,8.45,5
325.72,180,9.07,0
277.7,157,4.69,9
234.32,199,5.61,4
147.7,114,8.84,7
209.63,124,9.73,5
219.16,156,6.74,6
284.74,160,6.27,9
223.22,154,8.2,5
162.01,114,11.89,3
113.43,90,16.72,8
189.28,99,13.8,3
142.45,91,16.09,2
218.08,192,6.4,4
140.9,50,16.79,8
104.02,63,13.72,8
245.13,138,3.55,9
185.45,114,12.15,5
207.78,153,10.81,4
164.79,58,18.47,1
200.62,144,8.36,5
241.27,140,13.75,5
223.51,136,8.7,6
293.34,142,7.84,9
274.03,141,3.23,9
140.86,127,15.74,2
283.96,159,5.72,9
152.3,67,18.25,1
155.87,95,12.49,2
142.02,105,17.6,2
170.91,92,13.38,7
224.17,131,6.13,6
150.9,60,17.41,1
148.59,103,8.55,7
205.98,149,8.65,5
239.96,171,5.97,6
136.59,90,11.66,8
220.18,154,7.98,6
201.13,113,10.1,5
202.17,185,8.36,4
256.4,176,9.41,0
264.43,150,6.41,4
113.52,52,11.03,8
190.21,81,15.86,3
156.35,113,14.31,2
149.28,67,14.05,1
135.31,68,13.77,1
281.1,176,5.79,0
189.13,134,5.75,6
233.37,206,8.21,4
136.99,77,16.47,8
195.56,103,11.74,3
236.94,158,3.25,9
245.33,165,6.34,4
263.75,165,9.42,4
114.84,64,15.0,8
315.5,179,7.19,0
140.97,115,17.47,2
250.63,140,7.71,9
261.13,160,12.81,5
195.56,92,9.65,3
174.43,122,14.62,2
296.12,194,11.22,0
315.82,179,8.85,0
158.48,90,10.71,7
151.15,115,12.52,7
154.8,106,13.62,2
299.97,145,4.41,9
269.08,130,4.49,9
230.03,151,7.05,6
216.59,76,15.4,3
132.95,70,14.66,8
164.95,93,13.82,7
276.36,147,9.09,0
138.92,59,18.05,8
236.13,195,8.86,4
141.8,130,11.1,7
187.0,156,13.44,5
152.6,94,14.05,2
178.22,107,14.25,7
137.6,53,18.53,8
187.52,151,9.62,6
154.1,69,10.49,1
126.34,68,18.37,1
172.12,99,16.05,2
104.04,73,18.58,8
160.04,104,13.33,7
220.82,126,5.45,6
133.95,78,17.16,8
165.3,106,12.28,7
210.57,142,8.12,5
144.6,127,11.29,7
268.74,135,13.29,5
143.75,129,17.58,2
176.95,100,16.91,2
179.41,95,9.58,3
139.73,78,12.75,1
156.25,112,14.03,2
234.72,135,3.94,9
259.63,183,10.54,4
209.2,128,9.08,6
139.6,64,11.64,1
198.37,72,13.35,3
236.54,128,11.27,5
250.92,203,7.95,4
168.76,91,15.37,2
256.37,158,10.13,5
186.3,170,7.32,6
167.16,112,16.11,2
163.1,71,16.91,1
190.19,121,7.82,6
187.64,136,8.25,6
154.91,92,14.65,2
200.54,177,5.45,6
175.39,97,13.54,7
164.59,100,15.33,2
327.3,197,5.53,0
348.21,177,6.27,0
145.53,101,14.33,7
187.67,128,10.26,5
256.6,146,3.54,9
162.34,95,14.14,7
120.14,67,13.53,8
227.37,110,8.61,5
141.37,58,17.02,8
166.98,91,12.07,7
234.53,138,5.16,6
187.26,173,9.0,6
210.54,107,11.31,3
288.7,151,7.1,9
273.15,191,11.19,0
166.13,60,10.81,1
339.77,193,8.52,0
264.53,189,11.72,4
204.06,189,6.49,4
127.06,60,17.45,1
250.56,145,5.35,0
283.7,163,4.48,9
185.34,136,9.29,6
315.9,145,10.12,0
285.59,132,5.68,9
163.38,51,17.86,1
207.3,134,6.55,6
140.55,57,16.5,1
142.55,73,10.17,8
296.78,150,10.51,0
125.26,74,15.88,8
110.82,69,19.31,8
212.65,150,5.82,6
146.63,88,15.0,8
126.31,59,11.14,8
158.77,72,9.81,3
155.03,96,9.86,3
147.41,84,17.01,8
193.52,161,8.53,6
227.62,161,5.13,6
235.8,117,14.05,5
157.49,93,8.39,7
188.1,97,8.99,3
184.29,101,8.9,3
270.46,140,3.86,9
145.41,70,15.53,8
140.72,78,19.85,8
249.59,138,7.18,9
208.27,136,14.0,5
113.98,50,19.54,8
264.36,208,10.55,4
258.31,146,3.16,9
191.63,89,12.39,3
154.02,100,13.45,2
189.92,158,6.43,6
121.39,77,18.08,8
160.21,122,9.57,7
165.69,114,8.9,7
223.21,148,5.23,6
150.27,74,9.95,3
166.67,108,13.82,2
201.36,171,9.54,6
274.46,144,8.81,0
216.84,170,5.89,6
214.89,152,14.37,5
159.45,71,10.89,3
105.84,78,19.0,8
147.43,60,13.74,1
328.72,144,5.05,0
142.69,68,15.2,1
132.63,84,10.21,8
153.76,58,13.46,1
277.18,167,6.45,9
169.52,114,17.99,2
153.66,117,14.77,7
321.48,159,7.78,0
170.81,114,15.54,3
167.0,91,11.3,2
233.02,135,4.92,9
229.91,153,9.24,4
209.56,120,9.61,5
256.3,166,4.16,9
192.74,152,9.95,6
284.07,159,6.43,9
176.25,130,12.13,7
158.02,112,9.18,3
213.66,146,13.44,5
313.61,191,5.72,0
126.83,86,13.66,8
189.23,122,7.28,6
275.77,191,7.28,0
244.55,128,10.16,5
249.91,168,6.74,9
206.05,97,14.43,3
210.95,192,5.69,4
188.25,120,12.2,3
324.88,193,8.12,0
129.19,52,15.2,8
226.49,116,7.37,5
158.36,84,9.8,3
243.79,166,5.11,9
215.16,93,15.38,3
217.27,132,9.9,6
209.2,195,8.74,4
162.59,103,10.68,7
202.39,147,5.72,6
177.01,90,13.17,7
334.3,173,11.95,0
222.16,161,6.33,6
262.87,184,10.29,0
156.15,93,9.11,7
142.58,129,12.75,2
234.84,122,12.03,5
210.48,156,12.64,5
131.44,54,12.07,1
242.51,119,7.05,5
147.14,51,14.54,1
123.83,81,13.96,8
205.88,150,6.77,4
206.98,70,15.34,3
159.11,112,13.44,3
190.7,106,8.17,3
308.52,187,5.6,0
124.43,66,14.36,1
258.54,193,11.79,4
231.78,111,13.9,5
135.42,73,11.32,1
212.14,132,9.76,6
234.85,139,3.76,9
246.16,145,3.24,9
234.82,147,9.57,6
150.66,62,14.84,1
250.27,212,10.85,4
168.04,77,11.15,1
205.25,183,5.42,4
164.26,102,10.05,2
148.5,64,17.66,8
126.04,55,15.51,1
207.67,127,5.06,6
244.36,166,5.64,9
261.77,150,7.37,5
128.3,70,11.59,8
211.58,100,9.79,3
262.05,172,11.64,0
157.27,80,11.41,3
277.4,146,7.57,9
321.21,146,8.12,0
137.68,72,11.97,1
291.47,185,6.87,0
202.08,71,10.48,3
202.95,83,11.15,3
153.98,107,15.91,2
261.08,146,4.78,9
190.4,106,13.0,3
237.82,159,6.51,6
112.47,72,14.82,8
276.25,150,7.65,0
166.9,110,10.37,3
251.61,159,5.3,9
133.43,51,18.29,1
324.66,188,6.82,0
213.46,174,10.71,4
157.1,116,14.92,3
178.55,99,10.93,7
172.6,112,9.35,7
158.1,99,12.49,7
132.89,53,13.77,1
150.08,92,13.03,3
154.56,111,14.38,7
299.61,189,5.99,0
230.67,132,9.97,5
164.26,104,11.22,2
173.73,122,15.39,2
130.57,82,11.86,8
223.94,163,9.61,6
212.04,95,13.23,3
154.95,67,14.93,1
154.2,101,14.96,2
135.07,51,10.47,1
236.92,162,3.22,9
225.84,201,5.53,4
196.55,77,9.28,3
175.19,102,14.3,3
122.87,68,16.86,1
171.55,116,13.46,3
202.78,204,11.91,4
131.48,73,13.16,8
276.39,140,4.46,9
114.08,62,17.23,8
120.65,69,12.99,8
203.39,187,5.41,4
194.38,101,11.11,3
294.83,144,4.42,9
269.64,149,7.5,0
164.55,74,18.65,1
209.62,152,9.7,6
201.86,150,8.86,6
279.78,161,6.15,9
239.38,151,5.17,6
262.82,126,9.67,5
160.71,62,17.0,1
247.35,159,12.59,5
168.54,130,10.07,2
343.87,178,5.06,0
126.66,56,12.05,8
275.0,173,7.82,0
215.37,84,15.95,3
210.46,87,9.85,3
291.81,167,5.36,9
120.24,69,18.09,8
345.18,151,8.07,0
252.71,162,5.13,4
121.95,61,13.13,1
202.57,171,10.27,4
193.72,102,8.07,3
247.72,165,8.54,4
188.36,128,13.38,5
153.13,129,13.74,2
181.89,172,8.48,6
275.16,141,4.47,9
156.94,72,18.96,1
277.37,180,8.09,0
184.7,139,6.93,6
158.79,75,15.13,1
143.11,109,14.54,2
155.55,60,15.84,1
230.24,202,7.41,4
149.4,93,13.01,2
144.41,65,16.55,1
161.02,115,8.33,7
240.07,162,7.2,4
233.42,132,11.02,5
183.54,141,7.13,6
161.1,74,11.8,3
135.03,64,17.31,1
226.89,219,6.07,4
250.94,171,10.41,0
149.21,102,15.56,2
280.94,145,8.25,0
244.67,155,7.28,9
129.53,63,15.25,1
269.64,199,10.94,0
140.88,115,12.83,2
118.4,87,13.17,8
163.47,68,15.05,1
160.0,96,17.12,2
216.21,111,9.57,3
225.75,151,6.08,4
172.49,105,10.38,2
172.76,127,15.0,2
192.76,101,14.67,3
159.57,102,14.34,2
122.39,55,13.67,1
160.12,68,16.72,1
186.36,148,10.76,5
134.86,66,12.51,1
117.06,84,10.96,8
190.15,143,5.5,6
240.85,121,9.06,6
260.03,140,6.88,0
237.02,111,7.25,5
236.57,215,7.51,4
243.54,130,6.28,6
165.39,118,16.06,2
168.1,106,15.03,3
174.58,112,14.07,7
165.06,73,9.58,3
299.83,171,7.96,0
273.25,147,6.61,9
186.28,132,7.77,6
211.21,108,14.53,3
239.99,181,10.02,4
126.51,54,10.02,1
147.4,52,19.51,1
171.48,95,10.97,2
222.61,147,6.4,6
221.42,179,9.08,4
204.26,155,9.03,5
131.36,89,16.01,8
207.23,112,8.59,3
318.51,181,5.92,0
105.65,53,15.7,8
281.88,133,4.56,9
169.74,111,12.45,2
214.41,155,9.87,6
254.75,185,5.45,0
222.67,204,7.89,4
207.2,170,9.6,6
254.87,168,6.32,9
204.14,159,9.43,5
223.49,199,10.06,4
152.57,63,13.37,1
198.0,154,8.2,6
154.48,125,17.68,2
104.82,50,11.1,8
205.19,198,6.37,4
281.68,165,4.28,9
233.64,151,13.91,5
334.54,174,5.18,0
256.23,118,11.37,5
145.13,118,13.01,7
216.31,171,5.56,6
149.83,63,17.6,1
210.41,129,14.88,5
163.11,107,13.37,7
257.21,176,8.95,4
193.8,174,6.68,6
135.61,67,19.52,8
181.52,134,6.72,6
137.15,62,19.55,1
233.66,161,9.31,6
188.4,132,11.22,5
190.08,130,5.65,6
155.1,67,14.55,1
248.31,163,11.18,4
159.56,105,10.98,2
151.64,100,10.68,7
273.0,166,7.01,9
193.38,133,6.52,6
247.19,156,11.91,5
210.97,168,8.23,6
296.87,147,4.28,9
124.32,68,19.43,8
252.76,187,10.63,4
155.24,121,10.81,2
303.27,195,9.44,0
114.86,54,16.76,8
223.3,200,8.1,4
227.61,118,13.39,5
295.77,166,3.54,9
177.98,102,11.4,3
212.62,93,15.37,3
202.98,154,5.76,6
228.17,197,9.47,4
283.04,158,3.57,9
111.73,67,10.44,8
274.43,160,6.81,9
163.18,94,14.25,7
291.74,168,11.78,0
143.85,112,13.2,7
117.91,53,15.0,8
171.68,93,15.7,2
163.76,95,11.84,2
182.39,105,15.04,3
220.08,168,9.08,6
167.76,93,12.04,7
151.67,100,12.68,7
153.31,113,13.18,3
166.1,91,10.74,2
224.39,175,5.09,6
208.7,138,14.41,5
161.06,98,11.84,7
154.51,102,12.59,3
264.98,148,8.39,5
193.41,159,5.2,6
153.53,78,17.28,1
225.4,165,9.44,6
241.79,192,8.59,4
167.76,101,14.22,7
273.5,159,8.66,0
189.29,140,6.24,6
151.53,68,19.87,1
151.35,113,13.22,2
227.85,166,9.14,6
286.15,150,7.86,0
146.12,58,16.23,1
156.11,102,9.28,3
310.29,145,9.78,0
169.1,97,11.53,7
157.02,70,8.33,3
261.86,142,6.42,9
267.19,191,8.81,4
152.98,107,14.6,3
171.0,128,12.82,7
236.49,124,9.7,6
282.05,178,6.44,0
140.44,129,14.63,7
172.38,112,12.12,2
147.39,104,14.17,7
265.33,125,13.3,5
148.96,90,13.64,2
129.99,55,12.22,8
277.44,194,6.46,0
276.75,149,6.46,9
161.27,72,15.25,3
202.09,159,8.41,6
155.97,124,9.23,7
161.48,77,16.33,1
240.22,140,12.91,5
346.35,148,8.72,0
223.82,172,9.33,4
160.56,124,12.92,2
268.16,155,10.77,5
262.02,152,11.56,4
117.83,73,14.5,8
217.38,117,12.15,5
126.62,74,14.46,1
159.49,111,13.84,3
223.85,156,7.83,6
169.21,69,15.67,1
197.6,164,7.15,6
177.75,99,12.32,2
149.4,95,14.7,7
171.02,122,13.94,2
187.11,144,11.71,5
154.63,96,13.96,2
198.61,136,12.35,5
261.37,181,10.51,4
159.25,102,9.66,3
273.63,145,5.24,9
145.42,60,16.19,1
207.6,175,9.63,4
156.98,110,10.39,7
214.66,102,9.72,3
169.8,116,9.63,7
247.08,190,5.31,4
214.38,135,7.47,6
257.37,144,5.21,0
229.58,203,6.43,4
222.62,165,6.58,6
202.16,161,5.77,6
148.23,92,11.93,2
120.35,61,16.86,1
167.21,127,16.5,2
170.59,103,8.29,3
141.35,121,10.09,2
145.09,58,10.48,1
194.26,89,8.93,3
237.4,219,11.73,4
234.0,157,8.12,5
320.97,166,8.23,0
196.12,116,8.21,5
136.84,52,16.74,8
267.74,150,6.19,9
174.64,73,11.85,3
260.02,141,6.14,9
180.19,88,15.26,3
102.58,59,17.25,8
209.91,159,5.1,4
208.18,88,15.81,3
209.19,119,11.11,5
154.33,106,14.85,7
157.17,57,15.07,1
237.1,166,6.96,6
195.66,147,7.79,5
173.42,104,13.57,2
140.75,74,14.85,1
172.48,117,10.82,7
151.77,58,11.59,1
229.49,153,11.97,4
275.01,174,9.98,0
165.3,88,8.85,3
235.3,168,4.12,9
227.27,152,6.23,4
219.64,181,10.62,4
250.11,144,8.22,5
246.46,111,12.69,5
236.84,219,6.54,4
245.35,145,5.26,6
246.16,155,7.1,4
271.08,139,3.94,9
281.09,133,3.48,9
165.35,120,16.34,2
152.57,91,8.08,7
152.31,80,10.47,3
199.99,151,6.58,6
229.08,123,7.17,6
148.12,94,8.64,7
142.94,112,14.05,7
167.57,51,17.71,1
142.44,113,14.68,7
236.37,153,7.99,9
164.68,69,13.95,1
105.34,54,16.72,8
202.86,154,10.83,5
332.54,194,8.6,0
205.81,174,11.3,4
188.55,112,8.56,5
214.26,179,5.43,6
234.32,129,12.73,5
267.59,195,11.83,0
155.51,124,8.11,7
196.09,178,7.54,6
307.67,159,5.74,0
230.96,187,8.66,4
203.9,178,7.67,6
310.74,176,10.88,0
164.91,129,13.77,7
230.55,177,5.38,4
191.12,143,7.84,5
144.84,54,14.78,1
172.7,94,10.79,7
157.3,69,10.83,1
167.63,60,14.48,1
165.3,112,10.57,3
243.34,122,14.36,5
180.79,118,7.8,5
127.43,78,11.81,1
206.78,129,8.08,6
246.0,135,3.38,9
174.35,100,14.91,7
270.76,159,6.08,9
155.91,117,11.73,2
298.28,156,6.36,0
219.5,130,8.04,6
170.07,95,12.35,7
124.18,76,13.13,1
253.54,196,11.65,4
153.85,94,11.79,7
317.19,142,6.44,0
153.12,102,11.23,7
180.67,144,8.95,6
238.91,173,8.5,6
160.23,123,13.53,2
250.74,203,5.71,4
259.94,190,9.28,0
206.83,201,5.19,4
191.59,169,7.96,6
164.73,121,14.89,7
231.1,158,5.77,9
308.35,162,9.94,0
159.54,74,10.23,1
195.25,83,11.99,3
203.54,120,11.39,3
217.04,166,8.08,6
199.7,132,5.64,6
243.27,165,5.52,4
161.46,75,13.84,3
131.2,75,11.01,1
216.63,144,9.16,6
124.13,59,18.28,1
278.59,158,6.18,9
102.81,50,14.95,8
230.43,131,7.18,6
229.37,211,9.66,4
249.21,180,9.54,4
276.53,189,6.99,0
216.89,111,11.28,3
287.75,142,3.68,9
282.85,141,3.95,9
154.62,89,15.03,3
123.95,77,11.1,1
150.08,105,17.42,2
225.41,211,10.14,4
218.22,109,15.5,3
155.71,130,13.26,2
258.97,165,11.37,4
116.46,64,14.94,8
128.21,52,19.86,8
169.68,130,9.75,7
227.0,144,13.46,5
286.39,157,7.56,9
239.17,149,7.27,6
247.81,202,7.85,4
221.3,184,7.86,4
206.53,85,13.62,3
237.21,164,7.86,6
237.1,171,6.0,4
219.8,218,7.79,4
165.9,107,10.37,2
116.44,52,12.27,8
156.01,55,18.55,1
158.94,108,13.73,3
197.94,174,8.98,6
162.64,100,10.57,7
193.98,134,9.17,6
278.09,165,4.59,9
251.02,181,8.03,4
101.89,82,10.06,8
121.83,63,11.0,1
140.12,61,11.36,1
163.28,85,9.35,3
172.27,97,11.05,7
179.28,95,10.78,7
248.78,212,10.56,4
145.21,106,11.03,7
224.63,142,9.86,6
254.74,134,12.34,5
190.84,159,13.98,5
321.65,171,6.33,0
299.54,168,5.48,9
163.19,101,16.67,2
136.53,57,10.39,1
200.61,179,8.08,6
172.28,98,9.16,7
163.87,118,16.38,2
123.29,65,14.54,8
298.86,143,3.83,9
258.4,152,10.55,0
134.02,57,19.42,8
262.83,202,6.38,4
147.13,122,14.46,2
236.21,213,6.86,4
226.53,182,5.25,4
129.89,77,14.98,8
333.62,164,11.77,0
278.32,162,4.74,9
114.27,89,13.08,8
158.88,120,11.61,2
140.07,96,8.85,7
136.23,62,12.39,8
165.6,90,12.33,7
103.2,85,14.61,8
270.12,141,5.25,9
222.02,170,6.28,6
325.95,197,8.84,0
265.52,170,9.75,0
195.09,158,8.53,6
217.1,201,9.42,4
253.84,151,11.95,5
162.53,92,13.66,7
292.56,200,9.38,0
206.73,132,7.5,6
340.12,159,10.51,0
195.6,110,14.99,5
132.76,81,17.68,8
168.0,75,10.25,3
177.02,110,11.05,2
297.2,168,4.83,9
161.88,126,14.15,7
146.01,116,14.25,7
219.66,104,8.07,3
121.16,87,17.92,8
329.48,177,7.22,0
278.02,188,5.86,0
251.97,196,10.71,0
151.68,72,12.48,3
111.22,57,13.28,8
114.84,67,10.68,8
256.94,175,8.09,0
241.6,146,9.37,6
245.36,165,4.04,9
137.84,59,11.53,8
161.69,104,10.28,7
175.62,103,11.03,7
120.57,82,12.99,8
212.26,78,8.69,3
175.85,102,10.15,7
292.23,161,7.98,9
163.86,108,12.31,7
110.65,75,10.07,8
131.91,54,17.01,1
211.75,156,10.82,4
124.05,57,18.52,1
168.63,113,14.32,2
267.46,124,7.99,5
219.7,128,9.16,6
237.4,171,9.53,4
145.08,54,14.09,1
124.09,51,18.83,1
243.28,211,7.37,4
261.55,213,7.87,4
153.76,108,10.04,7
163.11,123,8.97,7
157.24,112,10.62,3
222.03,176,8.45,4
256.89,160,8.8,4
296.38,161,11.77,0
189.65,155,12.29,5
224.66,218,6.4,4
214.81,203,8.73,4
215.97,89,8.18,3
166.6,62,10.96,1
156.98,101,9.54,7
174.97,120,13.66,3
136.73,58,14.74,1
153.31,127,11.55,7
318.17,162,7.13,0
257.91,175,11.39,0
240.16,164,9.09,6
198.96,172,6.96,6
116.12,61,19.87,8
133.24,73,17.54,8
135.26,71,15.77,8
260.92,173,8.69,4
169.36,98,12.54,2
230.78,146,7.54,6
196.6,158,6.13,6
146.75,81,18.09,8
265.17,145,5.02,9
151.82,128,14.91,7
250.87,164,3.42,9
105.01,72,16.99,8
268.98,122,13.5,5
304.02,142,7.53,0
107.77,68,13.57,8
345.39,150,11.22,0
165.41,129,16.32,2
255.48,136,13.11,5
166.0,103,9.79,3
199.62,144,7.5,6
235.67,140,7.02,6
217.21,104,11.69,3
243.23,219,10.08,4
146.22,66,13.32,8
203.72,160,12.75,5
289.32,197,10.48,0
239.2,139,7.17,9
230.0,136,8.69,5
140.51,80,15.89,8
251.15,137,8.47,5
337.86,144,5.05,0
266.18,113,9.78,5
315.6,191,8.69,0
206.5,162,7.71,6
196.09,112,12.77,3
243.61,201,8.03,4
116.92,76,14.63,8
138.49,69,11.4,1
292.9,145,7.45,9
151.61,122,15.36,2
343.87,166,5.32,0
150.32,56,11.11,1
334.8,200,11.49,0
132.75,79,19.6,1
213.5,136,5.03,6
237.86,209,9.99,4
168.96,70,10.05,1
156.62,101,10.0,7
112.53,65,15.14,8
161.08,92,11.14,2
216.64,117,10.72,3
316.63,178,9.04,0
125.07,88,18.35,8
329.35,163,6.34,0
280.7,150,6.09,9
151.05,62,16.12,1
160.04,129,17.59,2
258.17,139,3.37,9
140.47,60,12.16,1
223.21,166,8.41,6
147.39,94,10.02,7
287.95,138,3.48,9
251.64,169,6.93,0
205.5,170,8.47,4
227.38,214,9.09,4
162.92,50,14.27,1
261.21,172,11.35,4
204.02,133,5.93,6
327.48,152,6.69,0
257.48,181,6.38,4
203.21,130,9.41,6
295.38,145,3.69,9
219.29,118,7.75,5
271.24,162,6.32,9
297.96,191,9.29,0
225.09,153,8.68,6
301.9,172,5.83,0
154.56,90,14.48,7
205.48,160,7.68,6
284.64,160,7.02,9
243.42,174,5.69,4
340.81,158,10.2,0
268.7,143,9.76,5
190.81,89,13.9,3
154.17,100,9.14,3
211.48,99,9.79,3
150.63,94,10.87,7
170.01,92,13.31,2
166.67,55,11.28,1
224.91,178,7.94,6
244.43,134,14.03,5
150.58,114,12.37,2
105.92,52,15.33,8
145.19,124,12.45,2
242.24,116,7.17,5
245.07,200,11.44,4
238.64,157,5.64,9
281.5,195,5.07,0
140.65,106,17.34,2
246.11,123,5.37,6
203.56,146,8.68,5
244.02,172,5.17,6
341.31,173,8.86,0
145.58,90,8.5,7
145.09,73,12.39,1
134.91,60,15.79,8
160.58,115,14.65,3
263.52,147,4.34,9
302.43,161,11.73,0
259.79,186,6.93,4
146.85,66,15.33,8
225.57,214,7.41,4
133.02,60,10.69,8
261.67,151,8.65,0
229.46,157,7.79,6
264.08,181,7.35,4
177.91,115,12.86,7
173.85,122,10.71,7
226.15,218,5.49,4
167.52,69,18.48,1
134.95,51,14.25,1
169.62,87,15.72,3
182.58,78,11.4,3
137.26,56,15.24,1
144.93,97,16.97,2
262.91,159,6.26,9
268.83,174,11.82,4
340.4,191,5.78,0
141.66,77,18.37,1
131.19,77,14.11,8
259.59,154,6.65,0
273.83,169,7.81,0
137.26,82,19.36,8
235.33,112,12.9,5
151.49,69,10.76,1
158.93,85,9.29,3
287.15,131,3.7,9
298.52,189,8.33,0
264.43,182,11.63,0
264.06,173,7.48,0
164.6,53,12.45,1
213.16,97,10.97,3
247.6,153,4.77,9
261.91,154,11.79,5
158.8,125,14.98,2
162.91,79,14.84,1
172.02,102,9.26,3
101.55,87,17.41,8
143.66,130,10.22,2
165.35,128,10.38,2
164.61,122,12.59,7
202.75,155,6.45,4
184.33,75,11.99,3
251.05,141,5.0,9
190.35,128,13.99,5
186.27,78,10.6,3
319.18,148,7.51,0
143.77,67,16.86,1
267.72,154,4.64,9
152.54,98,9.37,3
170.52,119,11.67,3
197.23,105,11.77,3
168.12,76,8.81,3
251.66,183,9.93,4
244.3,159,3.62,9
237.86,139,6.07,6
192.46,119,9.91,5
236.88,126,7.03,5
253.77,147,6.4,9
200.21,166,7.27,6
219.27,174,9.18,4
297.96,152,5.42,9
235.22,168,7.79,9
188.01,173,9.62,6
232.67,130,7.27,9
163.15,80,18.39,1
136.21,69,17.74,8
268.33,163,5.08,0
164.28,109,12.86,3
150.53,80,15.91,1
213.33,144,9.71,5
169.67,94,13.28,2
180.82,153,7.42,5
173.61,104,12.08,2
153.0,66,16.79,1
148.82,108,9.2,7
336.57,162,10.48,0
173.82,70,11.42,3
206.73,147,7.63,5
261.87,111,11.79,5
213.93,107,11.99,3
164.59,82,8.23,3
208.72,165,5.47,4
239.49,195,5.21,4
271.05,150,11.89,0
248.76,146,7.99,5
341.17,186,10.33,0
250.65,204,6.65,4
164.31,122,11.57,7
119.62,63,19.06,8
146.62,59,12.02,1
279.57,131,6.7,9
253.0,134,8.9,5
191.64,156,7.86,5
196.75,91,14.05,3
169.11,68,16.85,1
280.26,188,8.09,0
165.99,107,13.65,7
194.64,71,12.09,3
155.44,75,17.88,1
275.32,155,11.51,0
250.09,158,14.81,5
294.96,166,5.61,9
225.18,141,7.16,5
155.83,100,14.61,2
178.94,123,12.83,7
140.21,116,12.1,7
172.88,110,10.34,7
234.38,133,9.91,6
190.08,178,5.08,6
153.03,61,19.47,1
254.53,160,7.3,9
159.54,110,12.6,3
252.87,168,8.14,4
233.2,218,9.76,4
166.2,90,14.72,7
230.27,142,4.09,9
231.57,147,4.86,9
129.58,76,14.2,8
291.64,150,7.71,9
127.01,56,14.22,1
259.84,144,11.97,5
207.71,103,9.35,3
173.52,97,13.81,7
237.29,141,9.34,6
169.38,55,15.47,1
154.29,107,14.09,7
253.27,157,5.79,4
251.16,195,5.96,4
275.19,191,11.52,0
304.83,143,11.94,0
156.5,74,13.57,3
241.58,165,7.16,9
163.53,119,12.14,2
162.49,128,12.05,2
268.02,204,11.4,4
147.23,125,11.25,2
249.88,217,11.1,4
236.8,149,5.38,9
156.41,87,10.42,3
333.05,147,5.29,0
202.75,92,10.43,3
113.29,87,11.65,8
185.05,113,9.54,5
182.03,115,15.38,3
174.49,100,10.89,2
158.7,102,12.79,7
115.72,83,16.02,8
260.64,192,9.99,0
141.1,90,14.78,2
313.99,198,9.14,0
208.0,151,6.28,6
235.27,162,8.14,6
146.95,99,14.47,2
226.55,175,6.08,6
233.99,129,8.16,6
155.1,77,12.74,3
159.24,103,14.66,7
156.97,127,13.68,7
251.08,159,5.63,4
230.35,187,8.94,4
214.86,113,12.77,3
111.99,63,12.6,8
163.34,126,17.18,2
169.51,86,15.69,3
154.75,117,14.01,7
142.19,53,18.18,8
154.18,127,12.78,7
189.61,130,13.86,5
178.35,95,12.68,3
175.04,130,13.84,7
123.46,57,19.07,8
160.44,93,14.18,7
187.2,175,5.29,6
168.38,105,11.93,7
154.77,111,9.77,7
132.85,54,19.96,1
166.55,97,14.34,7
259.1,154,6.07,9
147.83,54,16.16,8
282.7,179,6.13,0
294.02,197,6.99,0
194.66,141,8.78,6
325.18,186,11.3,0
296.56,140,5.9,0
117.13,52,17.18,8
213.47,100,10.8,3
127.68,79,11.42,8
149.11,97,15.59,2
247.63,110,9.57,5
156.86,114,13.3,7
235.17,208,8.45,4
228.6,214,8.08,4
234.18,154,7.75,9
183.42,83,10.33,3
315.07,186,8.93,0
272.91,152,7.55,0
160.07,75,14.8,3
281.68,151,4.86,9
254.38,153,4.6,9
115.03,51,17.37,8
252.93,154,5.91,4
302.52,197,8.14,0
150.93,126,13.18,2
201.66,215,8.11,4
169.32,94,14.23,7
120.9,75,14.99,8
293.86,164,6.21,9
247.74,161,6.58,9
298.88,176,10.45,0
192.3,123,11.19,5
148.76,89,19.42,8
228.83,168,6.56,6
141.32,117,14.43,2
259.74,214,5.79,4
153.68,114,10.95,2
148.67,105,12.01,7
258.57,110,10.81,5
120.91,74,18.1,8
124.08,61,12.83,8
232.42,164,5.67,9
241.04,173,8.27,6
170.43,115,12.9,7
149.57,92,12.37,7
173.16,80,12.59,3
130.94,79,19.65,1
245.93,150,7.68,6
197.39,110,12.99,5
206.62,170,5.03,6
150.98,73,15.9,1
239.27,159,7.41,9
323.11,179,8.13,0
165.31,102,11.8,2
340.69,160,10.47,0
146.58,90,8.78,7
230.98,136,9.32,6
258.46,146,6.09,9
254.26,143,11.33,0
100.39,57,15.25,8
137.25,68,16.25,8
168.22,97,15.82,3
212.37,125,5.64,6
160.84,108,11.12,7
152.66,122,11.07,2
105.01,62,11.2,8
259.01,133,8.23,5
141.95,62,10.21,1
154.11,88,14.74,3
164.74,72,14.52,1
191.0,164,6.77,6
235.19,149,5.74,6
290.54,141,10.63,0
124.39,60,11.83,1
207.66,79,14.12,3
251.41,157,11.99,0
120.96,70,11.37,1
193.55,103,9.73,3
247.25,165,5.35,4
151.84,107,13.36,7
258.16,170,7.91,9
234.89,137,8.83,5
248.0,169,10.12,4
151.75,115,9.81,3
312.36,192,5.92,0
150.95,55,15.59,1
193.32,150,8.75,6
108.9,86,14.13,8
167.74,92,10.63,2
127.35,65,18.86,1
219.38,161,10.95,4
311.21,195,11.21,0
328.24,188,11.12,0
247.32,138,9.24,6
129.55,63,18.27,1
288.08,164,3.17,9
124.62,71,18.6,1
199.2,104,13.48,3
131.19,67,11.59,8
241.76,156,6.63,9
257.57,168,11.09,4
117.55,77,18.6,8
226.23,141,6.87,6
340.02,161,9.87,0
193.94,158,5.92,6
200.8,153,5.83,4
116.98,56,10.82,8
204.67,116,11.19,5
291.75,155,7.61,9
330.73,151,10.07,0
254.74,148,5.56,0
142.82,67,17.79,1
267.38,154,4.66,9
174.62,82,9.01,3
337.89,198,10.1,0
176.95,93,12.16,2
162.19,119,11.86,3
315.09,198,11.09,0
139.59,60,19.83,1
342.86,171,11.28,0
291.76,131,7.51,9
258.2,214,5.46,4
105.51,67,18.34,8
118.83,64,17.65,8
167.45,61,10.11,1
269.42,139,6.33,9
267.29,144,10.19,5
123.8,79,12.01,1
268.68,165,4.49,9
318.12,190,11.25,0
168.35,104,12.27,7
173.14,104,12.33,2
242.67,121,7.57,6
111.16,60,15.54,8
167.07,94,10.79,7
253.73,179,8.02,4
198.88,81,15.51,3
259.78,154,6.12,0
129.07,72,12.05,1
127.2,50,11.01,1
162.54,62,15.91,1
264.0,162,5.61,9
138.79,69,11.47,8
241.23,114,10.89,5
149.05,54,13.28,8
145.47,104,10.16,2
215.89,213,9.4,4
186.8,102,9.18,3
203.46,105,8.21,3
206.23,175,6.31,4
152.15,112,11.25,2
298.04,186,5.74,0
251.41,150,8.6,4
283.51,153,11.14,0
237.55,141,6.89,6
114.54,60,19.7,8
170.22,123,11.39,7
135.71,83,16.72,8
340.65,198,7.94,0
266.93,151,4.66,9
111.11,86,15.18,8
130.13,56,11.62,1
203.53,151,9.77,4
205.02,188,10.97,4
149.64,104,8.06,7
298.55,155,8.28,0
194.15,76,9.75,3
144.93,72,17.15,1
173.84,98,13.7,7
172.39,122,11.8,2
243.09,200,5.74,4
242.64,153,5.11,9
311.0,150,8.19,0
215.85,124,9.7,6
253.6,211,5.44,4
155.44,106,11.12,3
282.63,157,7.71,0
259.62,170,10.29,0
221.53,142,13.95,5
241.03,132,3.04,9
256.76,212,10.5,4
165.1,73,14.39,1
239.65,156,9.07,6
123.37,67,11.68,8
264.69,201,5.05,4
178.25,127,16.23,2
121.5,72,13.71,8
255.62,168,3.49,9
215.71,145,12.81,5
242.34,158,5.23,9
253.96,149,6.95,9
248.03,177,8.46,4
318.84,140,9.26,0
168.66,125,10.69,2
254.29,204,5.96,4
208.6,75,14.88,3
140.52,107,13.33,7
200.25,89,15.73,3
297.94,187,7.69,0
202.15,162,5.77,6
209.64,117,9.42,5
254.86,188,11.86,0
231.57,189,6.67,4
198.64,100,13.31,3
147.72,107,11.32,2
142.31,73,14.73,1
153.28,102,16.69,2
255.62,113,11.36,5
149.22,75,12.44,8
144.43,58,17.29,1
183.16,156,12.63,5
151.51,98,8.25,3
140.46,95,12.44,2
180.62,146,5.98,6
155.53,101,12.49,7
296.71,172,7.18,0
169.62,100,8.61,3
210.79,149,13.5,5
183.8,178,9.06,6
160.52,105,10.17,2
257.16,174,8.26,4
127.22,89,19.42,8
156.58,80,10.74,1
150.56,102,13.42,7
120.79,79,15.23,1
165.01,114,14.92,3
170.69,109,10.53,3
259.19,149,6.01,9
191.29,141,13.46,5
168.82,90,16.07,2
159.52,110,16.08,2
190.58,176,9.06,6
157.9,110,12.59,2
175.17,97,12.47,3
103.43,69,10.73,8
110.92,72,12.13,8
227.65,153,5.94,6
240.09,150,5.1,9
319.95,162,11.52,0
171.11,91,14.45,7
132.41,58,12.07,8
260.82,136,4.19,9
156.98,128,10.16,7
244.68,182,7.45,4
149.88,77,12.03,1
321.03,169,6.77,0
145.39,92,14.27,7
248.93,131,7.93,6
149.07,107,10.15,2
332.01,155,6.84,0
107.61,70,19.98,8
166.33,74,17.39,1
286.76,134,7.8,9
214.51,89,8.68,3
298.73,134,6.95,9
248.6,150,6.69,6
219.24,96,10.03,3
259.05,152,10.83,0
123.32,69,11.82,1
213.94,163,9.92,6
265.53,140,6.04,9
246.81,171,10.43,4
130.39,67,10.58,8
188.62,70,15.16,3
160.77,112,10.57,2
243.62,148,8.38,6
157.17,103,17.19,2
339.58,152,9.08,0
150.73,81,10.74,3
195.56,116,12.9,5
213.29,154,7.16,5
105.26,76,15.13,8
249.11,127,7.6,5
171.16,98,13.43,2
235.47,139,4.09,9
298.45,137,6.0,9
221.69,179,10.35,4
149.03,58,10.41,1
144.99,99,15.64,2
151.41,115,13.19,2
241.64,137,5.68,6
252.51,199,5.02,0
260.01,130,11.6,5
141.81,123,13.47,7
118.81,69,16.55,8
111.79,81,16.89,8
169.31,104,8.63,7
102.13,72,13.91,8
109.27,83,10.73,8
135.14,77,15.9,8
179.26,119,8.72,3
232.23,170,8.7,4
261.59,115,12.69,5
180.44,70,12.9,3
207.65,140,8.64,5
209.7,163,11.26,4
262.93,181,5.11,4
129.85,87,10.38,8
168.63,105,14.25,2
263.11,144,6.7,9
253.93,197,6.97,0
118.66,73,15.89,8
182.99,99,10.04,3
182.71,174,6.1,6
262.02,152,8.88,4
208.55,141,5.24,6
153.25,80,19.37,1
196.69,164,9.97,6
162.2,88,14.49,3
107.89,88,12.0,8
205.82,140,12.96,5
226.88,165,7.12,6
290.58,170,5.59,9
167.8,85,8.35,3
265.04,166,10.37,0
100.85,55,11.13,8
167.91,130,14.19,7
154.39,75,10.55,3
144.87,50,13.26,1
255.68,165,4.07,9
205.13,111,13.64,5
212.34,75,13.55,3
154.44,77,16.47,1
104.99,68,11.26,8
164.97,77,12.19,1
136.81,75,15.05,1
188.36,154,11.27,5
270.58,150,6.68,0
118.36,51,14.56,8
209.08,130,11.52,5
288.53,159,3.62,9
251.31,110,7.09,5
107.3,51,15.9,8
176.6,125,13.51,7
295.47,133,3.99,9
211.84,126,8.96,5
208.01,127,6.15,6
278.43,155,6.77,9
169.64,86,8.45,3
203.64,122,13.01,5
179.94,114,13.53,7
251.14,124,8.97,5
101.28,76,17.49,8
153.15,72,19.79,1
198.89,158,9.86,6
174.1,110,15.98,2
215.45,202,5.99,4
218.28,134,6.69,6
166.29,121,15.32,2
290.57,152,3.35,9
175.88,108,14.99,7
169.16,123,16.54,2
115.97,73,13.18,8
175.0,90,8.97,7
169.71,96,14.14,7
122.67,58,10.81,8
150.66,116,10.08,3
293.61,145,9.8,0
188.13,144,14.99,5
288.73,187,10.1,0
148.63,102,9.46,7
176.85,97,14.42,7
177.11,107,12.22,2
133.14,77,16.19,1
131.26,66,17.63,1
323.8,195,9.83,0
240.45,207,8.84,4
185.98,116,10.94,3
254.47,171,7.99,4
227.62,176,8.68,6
177.4,99,13.25,3
240.88,138,7.92,5
163.89,64,17.55,1
142.48,96,9.91,7
233.72,201,9.03,4
247.22,201,7.69,4
140.03,129,9.73,7
150.04,112,13.98,3
235.04,206,11.73,4
207.22,145,8.66,5
156.15,127,14.66,2
157.94,121,13.83,2
219.9,125,12.96,5
160.71,63,16.23,1
172.06,122,10.88,2
154.22,72,10.39,1
148.54,66,16.64,1
223.3,195,10.56,4
251.19,170,7.65,9
155.93,113,10.41,2
245.71,157,14.12,5
233.69,191,11.96,4
244.86,220,11.13,4
181.21,116,9.21,5
154.69,108,12.37,7
194.01,133,6.53,6
256.66,165,7.5,4
181.37,150,8.12,5
174.86,98,8.66,7
169.04,96,10.15,7
101.87,83,17.01,8
315.15,150,6.55,0
151.95,76,9.3,3
143.7,67,16.53,8
267.46,154,4.95,9
283.73,146,8.85,0
173.1,123,9.0,7
251.14,136,12.99,5
246.72,154,10.71,4
148.02,111,8.09,7
144.91,69,16.17,1
349.2,144,5.78,0
176.11,109,13.72,2
149.56,59,17.35,8
107.26,83,17.23,8
177.79,83,8.88,3
237.85,159,3.59,9
184.76,140,8.84,6
146.64,75,10.16,1
226.77,135,7.3,6
230.08,154,13.59,5
149.41,117,11.42,2
137.5,75,18.11,1
212.16,130,9.09,6
168.12,126,13.4,2
151.17,68,10.73,1
183.39,175,8.54,6
133.42,65,18.52,1
163.54,81,13.41,3
227.43,154,6.93,4
251.12,187,8.29,0
148.33,94,14.79,2
277.72,165,7.13,9
231.45,130,8.41,6
293.04,146,6.1,9
314.15,169,10.73,0
204.79,120,8.96,6
281.9,142,6.5,9
127.85,52,19.7,1
129.05,75,12.08,1
223.67,166,9.47,6
247.18,154,6.67,4
160.8,78,16.72,1
153.32,129,13.45,7
185.85,95,14.56,3
125.42,85,14.62,8
235.22,148,3.09,9
173.99,119,12.48,2
115.47,76,10.11,8
178.22,112,9.13,7
183.61,119,12.12,3
133.44,78,13.2,1
252.96,114,13.39,5
262.49,143,10.02,0
315.28,143,6.0,0
210.86,194,9.07,4
145.09,51,10.96,1
176.99,103,13.34,7
190.06,122,6.23,6
297.12,144,5.34,9
163.3,120,12.36,2
145.66,79,19.62,1
155.44,59,15.38,1
160.69,110,10.67,7
159.14,67,11.33,1
121.4,83,13.81,8
213.26,135,8.1,5
243.18,150,7.9,5
127.6,74,19.25,1
233.58,128,8.77,5
224.26,131,6.69,6
209.28,82,9.75,3
268.14,117,10.96,5
100.27,60,16.64,8
183.95,171,9.65,6
172.36,119,12.31,7
242.07,199,7.36,4
295.55,145,11.48,0
160.53,52,19.33,1
269.45,174,8.21,0
185.89,70,8.32,3
121.08,68,14.01,8
159.69,72,13.95,1
138.51,69,11.37,8
244.41,160,7.78,9
164.45,88,12.93,3
186.39,107,13.28,3
175.66,93,17.29,2
154.49,130,13.3,7
136.79,72,19.94,8
104.72,89,18.6,8
253.19,152,6.77,9
259.39,145,3.5,9
152.19,54,11.07,1
326.07,154,7.32,0
254.26,181,7.86,0
118.64,51,16.26,8
175.77,111,9.56,7
337.91,156,5.05,0
215.53,187,6.13,4
254.61,181,6.22,4
286.22,133,6.88,9
217.22,162,5.02,4
188.73,170,5.43,6
252.4,136,6.84,9
204.11,181,6.42,4
189.89,159,11.44,5
258.43,177,7.14,0
139.28,79,15.1,1
166.3,68,15.25,1
200.89,71,10.57,3
177.03,91,14.68,7
155.72,64,17.05,1
242.38,141,10.03,5
176.69,104,17.06,2
225.45,173,6.56,6
334.18,181,8.63,0
144.98,51,12.32,1
161.74,129,11.23,2
251.15,217,8.36,4
166.95,124,10.17,2
234.97,111,14.18,5
247.9,147,3.73,9
142.68,108,16.1,2
233.59,146,7.85,6
240.75,202,11.96,4
147.05,116,14.43,2
140.26,79,18.26,8
209.08,92,12.33,3
162.84,110,15.34,2
242.7,206,11.86,4
174.7,90,14.43,7
187.69,157,9.67,6
203.16,126,9.04,6
266.7,212,5.47,4
219.93,146,12.18,5
150.26,93,13.95,7
314.05,184,5.57,0
156.7,56,10.21,1
220.96,125,14.28,5
178.11,90,14.98,2
233.58,208,5.82,4
219.25,132,8.16,5
238.44,151,7.81,9
218.98,134,7.78,6
232.89,172,6.12,4
147.84,68,15.82,8
152.44,122,14.84,2
175.89,107,14.64,3
168.27,101,9.91,7
155.67,120,8.01,7
265.41,180,5.54,4
266.84,152,10.58,4
228.3,146,9.14,6
240.8,146,6.67,9
239.71,124,11.61,5
253.43,166,7.72,4
203.5,112,13.46,3
222.58,137,5.06,6
143.6,92,17.82,2
142.05,118,14.8,7
316.57,176,9.18,0
195.25,115,10.97,3
134.67,55,15.97,1
249.23,149,3.34,9
201.67,195,11.35,4
113.61,79,19.84,8
119.58,52,17.18,8
148.13,117,14.03,2
245.2,114,13.36,5
215.64,155,7.35,4
149.55,96,17.97,2
212.4,97,9.94,3
176.57,98,10.97,7
114.47,73,18.76,8
229.52,151,9.83,6
332.93,162,5.8,0
205.28,150,5.96,4
207.85,94,15.34,3
346.49,198,11.61,0
247.04,141,4.86,9
192.77,98,12.31,3
312.0,179,11.84,0
151.88,114,10.6,7
185.23,147,7.91,5
226.38,155,8.32,6
247.98,205,6.76,4
277.26,170,6.5,0
149.72,78,16.32,8
179.93,128,11.78,7
258.4,142,12.34,5
265.2,149,7.96,5
148.87,127,14.2,2
238.34,147,3.38,9
182.35,101,9.62,3
155.92,99,12.65,7
331.47,160,5.35,0
185.72,133,7.89,6
250.72,141,4.83,9
190.34,157,8.55,6
149.36,66,16.28,8
155.71,59,11.42,1
130.33,79,10.02,8
167.78,101,14.88,2
185.67,136,7.71,6
137.13,67,14.98,1
244.12,126,8.93,5
204.36,136,9.64,5
134.99,56,13.9,1
143.38,124,11.17,2
290.66,138,6.78,9
228.0,156,11.85,5
156.36,107,9.82,7
156.44,123,8.09,7
231.56,141,6.33,9
306.51,146,6.81,0
227.59,133,7.92,6
157.21,55,12.41,1
209.44,134,14.25,5
177.81,113,14.83,7
144.67,118,16.98,2
114.07,50,18.41,8
246.55,178,9.56,6
150.55,117,14.8,7
175.58,90,8.61,7
312.52,148,6.82,0
145.15,67,18.06,1
151.27,102,11.99,2
280.21,167,7.36,9
206.21,144,6.1,6
240.14,139,4.95,9
165.98,81,8.76,3
269.78,195,5.03,4
137.15,88,16.06,8
262.34,151,7.92,9
116.21,50,14.72,8
150.85,60,11.28,1
210.98,180,8.85,4
309.07,191,5.26,0
230.63,128,13.06,5
220.84,178,8.61,6
129.88,76,15.49,8
187.87,177,9.74,6
202.14,219,5.2,4
135.34,60,13.36,1
213.0,156,5.24,4
171.13,122,9.31,7
171.83,113,12.37,2
261.28,136,7.35,5
190.76,119,10.65,3
241.53,219,6.83,4
287.64,168,4.39,9
228.85,170,7.38,6
319.81,173,9.54,0
108.31,70,13.18,8
245.46,138,7.21,9
128.53,71,14.65,1
216.29,123,5.5,6
154.83,103,11.92,7
268.32,182,5.4,0
252.17,168,7.88,9
189.88,87,14.5,3
280.02,131,5.08,9
262.95,159,6.75,9
272.13,136,4.96,9
168.69,122,15.65,2
235.06,167,5.13,9
179.71,106,12.97,7
152.95,71,16.87,1
205.36,153,6.2,4
123.34,51,19.58,1
229.83,124,14.73,5
162.7,78,14.71,1
224.91,150,8.97,6
155.65,82,10.51,3
194.24,71,13.11,3
159.82,99,10.32,7
224.01,164,9.27,6
188.42,117,15.76,3
198.58,127,6.14,6
100.52,82,16.55,8
218.79,112,11.03,3
164.97,109,10.7,7
233.51,184,5.24,4
168.53,69,15.85,1
231.35,157,6.45,9
114.16,87,16.72,8
306.91,161,9.06,0
145.41,77,18.78,1
231.23,144,9.61,6
171.72,106,9.3,7
335.69,189,8.02,0
260.46,168,5.31,0
346.81,147,7.7,0
246.36,163,5.86,9
217.83,160,9.82,6
124.83,50,11.02,1
113.19,50,12.58,8
141.13,119,11.67,7
208.77,115,14.66,5
166.77,61,13.33,1
243.01,156,6.56,4
193.82,144,9.84,6
158.36,128,11.62,2
159.42,59,19.66,1
204.58,113,11.05,3
297.94,166,5.14,9
144.0,113,14.22,2
175.79,98,14.68,2
263.38,138,7.73,5
221.25,165,8.09,4
239.83,180,11.62,4
198.02,102,14.08,3
169.96,60,12.98,1
213.5,144,7.53,6
138.1,85,13.02,8
169.83,59,16.11,1
240.3,134,9.81,5
142.57,121,9.79,7
159.38,99,11.1,7
252.46,140,10.29,0
197.27,137,6.49,6
231.63,114,10.54,5
234.42,160,4.96,9
297.23,141,6.2,9
151.58,101,13.11,7
132.23,85,19.41,8
173.07,93,16.38,2
142.88,82,16.73,8
250.0,177,6.64,6
146.9,69,15.78,8
195.2,116,11.77,3
203.72,181,7.64,4
161.95,50,19.28,1
155.23,96,9.13,7
215.15,209,8.28,4
157.79,104,10.42,2
272.66,193,7.16,0
205.98,152,7.28,6
194.26,154,9.15,6
210.31,131,13.26,5
168.02,52,14.63,1
215.44,209,6.25,4
146.75,63,18.0,1
261.72,129,8.21,5
240.2,172,7.72,4
211.44,151,7.16,4
220.3,122,14.82,5
112.67,78,14.77,8
139.85,70,14.86,8
143.53,81,14.79,8
279.74,186,5.62,0
204.59,85,13.62,3
283.38,143,3.64,9
313.08,191,11.76,0
180.69,114,11.04,5
242.24,151,14.13,5
190.59,157,8.23,6
279.67,179,10.68,0
196.68,133,12.24,5
121.77,58,11.11,1
133.52,54,13.3,8
153.01,99,13.49,7
210.43,175,9.65,4
108.45,74,11.26,8
160.96,76,14.98,1
121.7,54,18.91,1
219.43,105,9.24,3
286.74,180,10.64,0
256.48,169,5.42,9
266.45,219,10.43,4
324.4,191,11.9,0
100.43,51,16.83,8
260.6,194,10.54,4
182.8,77,15.46,3
169.98,100,14.31,7
147.07,99,12.22,7
205.91,185,9.39,4
181.86,136,7.29,6
199.44,94,9.48,3
167.77,103,14.4,2
191.13,157,6.08,6
266.05,179,6.74,4
151.26,101,13.76,2
239.71,176,10.87,4
148.87,63,13.05,1
159.44,62,19.11,1
121.79,69,10.98,1
225.2,153,5.54,6
184.66,148,7.67,6
141.17,54,18.35,8
168.59,104,12.34,3
150.03,63,19.86,1
252.08,180,8.83,0
234.65,171,6.09,6
203.54,74,14.07,3
142.09,114,11.83,7
148.22,62,15.29,8
142.71,69,16.89,1
262.42,133,8.81,5
185.72,144,7.29,6
255.29,186,8.99,0
165.14,105,13.23,3
233.62,139,8.5,6
232.75,144,13.94,5
209.57,213,6.01,4
160.13,115,12.85,7
179.19,91,14.54,2
221.52,156,11.44,5
121.9,53,11.88,1
225.71,149,9.46,6
327.39,174,5.89,0
235.48,132,5.85,6
147.02,54,11.48,1
148.05,110,10.77,2
318.58,185,5.75,0
234.31,151,3.04,9
110.93,59,10.8,8
212.81,204,9.37,4
300.83,144,8.0,0
230.29,190,7.47,4
152.97,119,10.91,7
150.26,110,9.31,7
140.22,58,18.94,8
161.91,52,15.23,1
149.33,58,15.49,8
192.82,144,8.71,6
142.76,51,12.96,8
275.23,166,4.85,9
134.97,70,10.71,1
188.54,159,6.12,6
212.86,136,9.17,6
225.03,152,8.04,5
145.26,99,14.18,2
147.85,121,8.28,7
139.56,56,18.48,1
232.36,137,8.77,5
254.37,127,15.0,5
260.88,165,6.57,9
191.16,138,9.1,5
131.9,65,12.97,1
236.31,128,12.65,5
189.77,133,9.26,6
111.55,64,17.33,8
229.95,182,5.06,4
254.86,213,11.38,4
222.5,192,5.55,4
207.93,119,12.85,3
169.46,92,12.04,3
177.2,102,13.18,7
222.88,136,6.43,6
170.84,125,17.25,2
160.42,124,8.46,7
272.79,190,9.39,0
201.88,80,13.83,3
160.47,125,10.37,2
248.28,138,6.71,9
115.14,81,19.96,8
143.39,55,18.61,1
178.63,110,8.86,7
249.24,144,5.23,9
122.88,68,15.24,8
336.58,143,10.01,0
257.19,154,11.89,4
241.57,145,8.25,6
194.55,169,7.64,6
322.68,194,9.9,0
151.75,112,14.79,2
226.37,126,8.15,5
136.15,67,13.53,8
279.28,145,3.74,9
140.5,124,8.53,7
227.04,151,8.57,4
175.17,92,13.92,2
174.87,116,11.03,7
158.43,66,13.81,1
188.91,119,10.99,3
173.01,105,15.72,3
175.4,100,16.06,2
213.84,166,9.22,6
181.93,129,8.59,5
230.1,153,9.04,4
128.0,72,16.14,8
258.93,145,7.35,5
347.68,185,8.23,0
290.69,190,6.08,0
191.47,160,6.28,6
163.01,56,19.13,1
300.39,146,9.42,0
165.88,104,10.79,7
304.7,169,10.86,0
258.4,169,10.47,0
192.96,83,8.23,3
160.75,68,17.37,1
242.28,140,7.02,9
164.99,62,12.38,1
254.36,131,10.45,5
224.81,151,14.64,5
141.75,96,14.99,7
121.77,88,14.45,8
202.98,167,8.61,6
149.35,111,12.76,2
312.79,193,9.45,0
258.12,192,8.83,0
149.24,116,9.77,7
252.83,199,5.81,4
268.05,115,9.4,5
143.16,78,10.42,1
171.15,90,8.68,3
193.37,101,15.7,3
298.72,196,7.17,0
214.15,187,5.24,4
194.09,159,7.67,6
154.01,99,15.89,2
263.78,190,10.62,0
182.86,111,8.15,3
231.69,150,8.83,6
167.68,55,16.76,1
243.25,168,4.2,9
144.56,101,17.57,2
142.24,94,9.61,7
267.26,172,11.25,4
138.03,83,18.87,8
166.16,109,11.31,7
223.65,160,13.86,5
120.06,69,14.96,8
239.05,135,13.81,5
293.16,165,7.57,9
120.78,71,17.83,1
298.4,196,8.04,0
256.66,136,9.56,5
340.83,153,11.05,0
169.04,106,12.95,3
219.71,75,9.22,3
133.76,66,18.92,8
144.13,116,11.41,2
156.84,112,11.47,7
261.11,188,9.52,4
161.05,66,12.63,1
152.01,59,11.12,1
268.74,130,5.94,9
190.14,142,5.5,6
150.01,110,12.94,7
147.91,64,10.47,8
206.27,191,6.47,4
198.36,160,7.88,6
162.51,109,9.55,7
264.49,153,5.97,9
148.45,71,19.27,1
157.2,119,10.18,7
261.01,158,6.06,4
253.49,156,5.99,9
141.15,90,12.77,7
181.92,179,5.74,6
206.78,155,9.95,5
205.25,192,6.86,4
316.71,164,5.65,0
228.28,126,9.56,6
132.03,68,12.23,1
113.09,90,17.35,8
255.63,123,12.12,5
236.22,151,10.75,5
153.43,108,12.28,2
141.82,112,15.35,2
168.24,79,10.52,1
245.63,166,5.77,4
238.15,208,7.49,4
244.67,152,4.87,9
293.15,165,6.75,0
316.19,186,8.5,0
159.98,129,15.63,2
174.29,93,16.55,2
254.24,143,10.46,0
180.98,146,13.63,5
262.36,192,10.96,4
163.8,110,10.53,3
123.77,65,18.95,1
217.05,156,9.87,6
129.48,63,16.24,1
179.15,117,13.57,7
163.84,117,9.97,7
211.08,142,6.96,6
214.41,76,13.02,3
107.16,73,15.04,8
236.95,137,10.14,5
130.49,90,10.08,8
175.98,103,12.96,3
137.26,89,11.81,8
192.37,93,14.37,3
261.2,146,5.12,9
160.44,109,10.4,7
163.48,91,14.7,7
240.7,116,8.4,5
163.26,114,14.89,2
198.01,130,12.69,5
157.33,92,12.66,2
317.81,164,6.57,0
178.27,103,16.14,2
120.3,74,11.7,8
129.39,55,11.25,8
333.53,152,9.67,0
210.33,173,6.02,6
267.17,122,14.61,5
137.03,68,16.33,1
138.55,61,15.32,1
132.55,65,13.96,8
235.23,120,7.95,6
218.19,186,9.97,4
198.24,155,7.31,6
279.53,149,4.85,9
140.81,68,11.58,1
164.54,73,10.04,1
223.49,160,8.0,6
175.06,93,11.27,3
133.22,68,18.07,8
195.97,98,13.06,3
109.47,80,17.76,8
188.87,142,10.9,5
141.28,94,13.78,2
141.18,51,17.86,1
224.99,211,10.44,4
243.57,138,5.23,6
266.59,188,11.83,4
123.01,72,11.34,1
150.57,72,13.09,1
287.95,151,3.5,9
215.69,140,7.5,6
134.84,72,17.38,1
163.38,95,13.62,7
168.96,130,10.93,7
269.87,134,14.18,5
155.72,50,19.79,1
195.75,118,7.64,5
164.32,77,11.74,1
182.44,147,14.2,5
289.65,154,7.83,9
147.9,56,13.31,1
163.35,108,10.8,7
204.16,121,8.45,6
309.43,164,7.71,0
152.83,100,12.62,2
181.34,149,8.65,5
257.87,193,7.07,4
280.54,133,4.47,9
235.5,198,7.86,4
135.21,68,10.62,1
165.39,50,14.28,1
185.73,100,15.09,3
243.21,174,8.63,6
167.95,108,16.41,2
152.71,87,9.25,3
345.04,165,8.66,0
174.88,111,10.8,7
228.13,201,8.85,4
217.86,135,7.75,6
266.48,161,7.13,9
143.07,106,10.84,2
219.88,131,6.96,6
249.39,165,4.02,9
229.66,151,9.15,6
181.67,115,7.05,5
174.13,100,9.52,3
241.92,174,9.22,6
141.53,94,11.83,2
127.36,61,12.81,1
221.09,169,11.12,4
165.66,122,9.02,7
153.11,113,14.62,7
303.9,152,7.34,0
265.85,123,13.73,5
228.89,190,5.66,4
201.85,171,8.51,6
140.77,79,11.98,8
276.54,145,3.62,9
141.45,120,13.42,7
240.48,133,4.82,9
240.29,138,5.1,9
123.26,61,17.01,1
124.09,50,16.07,8
190.28,152,7.45,6
127.73,59,18.44,1
291.03,145,6.56,9
210.9,186,11.3,4
289.97,183,10.07,0
127.06,67,13.97,8
146.24,122,11.65,7
269.91,141,7.68,5
261.39,183,9.31,4
110.34,84,11.88,8
174.46,114,13.38,7
201.27,142,6.36,6
233.97,156,3.86,9
133.69,77,17.04,8
187.74,104,9.24,3
218.17,120,10.75,5
180.86,174,5.22,6
271.17,151,10.36,0
140.39,70,11.04,1
147.33,108,13.27,2
249.19,126,12.01,5
255.85,141,3.52,9
259.63,151,10.3,5
205.53,190,5.98,4
288.26,195,6.99,0
169.15,130,10.54,2
180.91,160,8.39,6
162.01,109,17.94,2
143.48,70,17.1,1
143.47,118,12.88,2
339.79,197,6.76,0
282.23,154,6.55,9
276.47,149,4.19,9
275.95,156,3.05,9
146.96,120,9.73,7
143.49,97,15.71,2
136.21,71,14.56,1
175.96,112,17.38,2
203.03,88,13.48,3
142.06,59,14.71,1
220.92,215,7.66,4
145.22,65,12.21,1
146.56,97,14.62,7
166.89,53,13.64,1
164.38,97,17.33,2
138.4,61,19.38,1
229.71,139,5.31,6
185.63,82,9.28,3
234.68,166,11.29,4
244.6,178,8.92,6
156.33,115,11.54,2
253.49,201,9.47,4
248.95,187,6.79,4
159.5,91,11.76,3
222.71,171,5.83,4
206.55,127,10.15,5
164.59,127,10.95,7
192.33,117,15.13,3
180.38,134,9.94,6
145.11,76,19.17,8
237.23,148,11.25,5
312.73,142,8.69,0
206.23,72,15.52,3
131.11,62,14.72,8
296.06,151,8.57,0
173.25,109,13.97,2
148.26,118,10.4,7
261.72,164,6.69,9
214.31,116,12.74,5
153.02,113,12.52,7
341.42,144,11.46,0
269.9,139,12.67,5
153.48,125,10.02,7
337.93,172,6.29,0
129.62,55,15.64,1
333.49,193,11.44,0
164.16,94,9.76,3
203.36,205,9.33,4
262.98,170,7.91,9
267.3,157,6.1,9
186.89,113,12.28,3
124.8,59,11.17,1
263.43,160,9.61,0
136.9,87,18.3,8
269.12,143,14.84,5
118.01,85,13.95,8
146.48,67,11.48,1
127.24,65,11.17,8
149.99,115,8.23,7
179.91,112,11.23,7
161.51,97,9.51,7
142.78,52,10.78,1
267.79,163,5.26,0
334.4,145,11.85,0
201.28,153,12.95,5
105.69,55,11.67,8
200.88,78,14.14,3
161.96,129,14.45,7
174.06,91,11.89,2
146.64,111,13.29,2
151.53,129,17.92,2
217.0,163,10.8,4
174.34,124,11.86,2
237.69,178,7.72,6
221.33,136,14.01,5
122.69,67,10.32,1
165.01,93,12.09,7
147.16,50,14.87,1
264.12,211,7.05,4
278.77,131,3.42,9
141.96,72,10.51,1
158.18,91,9.62,3
259.09,209,8.11,4
157.6,126,12.45,2
204.55,170,5.89,6
266.71,211,11.98,4
210.69,220,6.72,4
168.19,80,11.28,1
104.53,62,17.1,8
121.99,62,16.37,1
194.1,136,8.96,6
269.52,157,6.23,9
223.68,152,8.46,5
150.91,110,12.75,2
208.4,161,5.52,6
173.65,80,8.88,3
152.89,100,15.52,2
207.5,122,8.74,5
276.12,181,5.5,0
181.41,103,9.74,3
188.71,157,7.34,5
342.88,172,7.82,0
116.07,62,18.54,8
160.15,116,17.74,2
131.71,64,10.44,8
168.3,91,8.5,3
275.87,197,6.89,0
150.36,126,8.6,7
238.52,166,6.56,6
278.21,192,7.9,0
264.98,135,6.62,9
126.27,67,16.84,8
168.74,113,9.36,7
175.02,121,13.01,2
223.72,207,6.02,4
300.92,199,5.32,0
122.45,76,10.78,1
176.53,120,12.48,7
261.99,115,9.53,5
193.36,97,10.03,3
222.42,190,11.99,4
303.62,177,8.29,0
160.21,66,15.33,1
134.5,54,13.03,1
147.73,68,11.42,8
176.94,116,10.66,7
320.47,162,11.19,0
114.64,78,15.49,8
164.88,108,10.12,7
120.2,85,11.27,8
151.24,110,14.67,3
164.91,99,11.51,7
245.59,128,7.08,6
219.29,138,5.63,6
241.89,167,9.94,6
235.5,135,7.85,9
145.22,85,14.99,8
198.74,165,6.18,6
125.39,55,13.38,1
179.93,127,15.67,2
185.49,168,5.1,6
165.77,79,11.33,3
147.98,53,10.67,1
108.74,89,17.65,8
276.95,142,6.45,9
160.07,50,12.42,1
269.95,158,9.04,0
247.38,172,11.27,4
287.72,158,11.89,0
215.81,140,7.6,6
260.08,150,7.35,9
155.53,56,12.28,1
315.3,174,6.16,0
144.43,104,15.85,2
280.58,156,3.69,9
224.56,166,8.18,4
171.39,106,12.64,3
200.84,179,10.89,4
204.78,152,11.14,4
331.95,141,11.56,0
157.21,80,14.82,1
147.5,63,15.81,1
227.74,152,8.21,5
223.35,167,10.13,4
122.81,66,12.19,1
300.6,174,6.86,0
140.83,117,8.88,7
252.48,156,8.74,0
317.71,200,8.85,0
240.71,198,6.14,4
217.58,182,8.12,4
208.86,179,9.22,6
165.53,110,11.01,3
312.9,151,6.44,0
118.51,69,18.82,8
146.95,77,15.51,8
238.65,146,6.81,6
164.22,105,9.14,7
250.8,179,8.21,0
103.92,52,19.03,8
172.54,118,13.83,2
101.22,66,11.22,8
140.42,53,17.54,8
216.43,165,8.67,6
194.02,113,8.09,5
226.53,175,9.15,4
225.78,162,11.29,4
271.72,165,3.53,9
233.64,159,5.9,6
214.92,195,11.67,4
210.94,177,7.74,4
214.91,120,8.08,6
122.98,63,13.36,8
178.82,98,15.58,2
116.99,71,16.54,8
296.23,158,7.02,0
167.28,94,10.03,2
144.12,64,11.5,8
141.33,80,15.59,1
125.18,50,10.1,1
224.36,140,5.64,6
252.66,184,11.36,4
102.28,63,11.35,8
321.98,161,8.53,0
233.61,169,9.46,6
278.38,132,7.51,9
160.39,120,13.81,7
179.41,122,11.34,2
244.18,162,6.57,4
276.43,187,10.15,0
154.08,123,14.9,7
104.38,56,12.66,8
178.92,100,17.67,2
196.4,125,9.69,6
200.96,204,11.11,4
251.91,152,9.9,5
176.62,94,10.44,2
212.34,174,11.76,4
126.84,50,17.78,8
254.5,142,13.81,5
155.13,110,8.28,7
135.51,60,12.29,1
216.64,172,9.42,6
137.86,63,11.73,1
185.64,144,7.42,5
179.87,76,14.82,3
254.75,199,6.59,4
143.52,112,13.86,2
244.39,146,4.54,9
149.3,95,12.33,2
107.38,83,10.21,8
168.77,74,14.53,1
253.09,173,9.24,0
144.52,56,15.98,1
156.44,99,12.94,7
343.22,156,10.78,0
175.5,103,10.89,2
240.49,170,7.75,6
239.37,153,7.46,4
139.69,66,10.08,8
220.01,111,13.66,5
224.59,116,11.2,5
136.66,69,19.52,8
129.23,71,19.66,8
265.18,152,12.51,5
202.15,125,8.48,6
287.49,169,3.75,9
289.06,163,4.24,9
196.07,87,8.85,3
307.91,144,6.71,0
148.59,119,14.59,2
166.37,102,10.82,7
146.99,53,16.06,1
243.79,150,3.03,9
147.82,65,11.58,8
228.39,134,9.13,6
323.01,171,7.63,0
169.91,128,12.19,2
316.0,180,7.48,0
200.32,213,9.87,4
157.32,124,16.7,2
294.0,131,4.9,9
280.49,144,6.69,9
286.56,149,10.8,0
158.84,122,11.16,7
147.66,63,10.96,1
183.75,111,8.25,5
112.63,78,11.06,8
152.87,84,13.06,3
128.18,59,18.44,1
154.51,82,9.03,3
226.6,204,8.77,4
157.98,101,15.82,2
300.1,180,8.3,0
219.94,124,5.68,6
299.51,173,9.53,0
262.17,132,5.61,9
153.78,74,13.54,3
189.85,118,13.41,5
243.81,180,6.91,6
141.64,79,16.13,1
196.98,160,6.85,6
236.05,216,8.54,4
162.33,97,12.2,7
293.95,190,5.83,0
155.2,90,12.82,7
153.1,95,10.87,2
209.44,172,5.46,6
228.18,158,5.72,4
144.75,127,12.69,2
149.5,112,10.91,7
244.55,134,8.27,6
239.89,135,9.08,6
159.76,78,10.06,1
214.25,105,12.09,3
121.09,90,14.68,8
247.01,168,8.26,4
208.32,198,10.68,4
159.38,106,16.41,2
205.95,160,8.46,6
142.81,79,19.39,1
138.96,50,15.9,8
146.65,80,10.22,1
123.52,87,14.0,8
197.73,168,6.25,6
231.05,164,6.43,9
187.7,107,14.07,3
181.85,145,12.12,5
206.35,134,8.45,6
186.68,175,7.51,6
261.74,150,10.1,5
246.25,132,7.32,9
203.46,73,8.45,3
271.22,158,4.0,9
158.5,74,14.89,1
234.0,184,6.23,4
160.54,121,14.61,2
143.41,107,8.31,7
142.82,63,13.74,8
229.6,135,8.54,5
239.94,167,6.1,6
199.11,96,8.92,3
196.3,154,11.28,5
262.2,122,14.6,5
143.26,61,11.64,1
168.86,108,11.16,3
183.07,156,13.51,5
192.31,154,7.9,6
284.55,165,3.95,9
137.66,76,14.98,1
266.58,189,5.5,0
234.53,165,7.39,9
285.17,152,6.74,0
256.74,121,8.66,5
125.97,88,13.45,8
342.26,181,11.36,0
267.12,159,14.89,5
144.2,92,16.37,2
329.27,192,8.2,0
277.03,144,5.45,9
240.63,168,6.45,9
134.74,72,10.93,1
121.96,90,17.39,8
278.21,145,9.63,0
143.77,59,14.74,1
261.84,139,7.45,9
166.13,103,9.81,7
181.95,144,12.2,5
156.52,121,12.67,7
137.18,72,10.52,8
244.11,203,10.27,4
192.75,81,13.43,3
150.77,109,10.13,3
188.8,142,13.4,5
151.98,80,8.36,3
210.34,122,11.25,5
142.32,62,19.99,1
233.38,212,6.98,4
157.37,122,12.61,2
122.11,71,14.93,1
176.0,130,9.66,7
347.88,186,9.59,0
294.1,147,4.59,9
235.06,135,6.89,9
242.55,176,6.07,4
285.8,158,5.58,9
147.49,84,18.62,8
245.3,177,5.6,4
252.62,177,9.64,4
163.17,120,8.12,3
165.45,115,17.61,2
232.69,174,9.74,4
228.27,155,11.26,4
159.81,64,10.79,1
262.54,141,9.8,5
210.11,101,14.57,3
151.62,68,14.08,1
240.79,153,7.08,6
231.28,153,5.23,9
219.46,205,10.24,4
270.06,158,5.5,9
148.65,91,16.26,2
114.43,77,12.97,8
259.6,147,4.97,9
240.75,173,8.9,4
170.08,112,9.84,7
187.32,162,7.93,6
216.43,167,7.39,6
100.43,79,10.25,8
279.41,134,3.37,9
130.06,70,10.79,1
207.36,153,6.49,6
140.35,75,19.03,1
200.18,162,8.7,4
267.33,185,9.7,4
174.0,118,13.19,7
210.32,135,9.25,5
213.29,155,5.11,6
111.92,83,10.66,8
186.88,156,6.28,6
267.57,197,6.21,4
333.97,186,6.18,0
162.57,115,12.2,2
178.43,92,12.09,2
208.84,179,8.12,6
182.52,106,11.5,3
188.31,115,13.34,5
181.61,146,5.94,6
230.62,153,7.18,9
179.94,106,12.27,7
240.98,142,8.56,6
166.07,122,16.93,2
132.33,60,15.08,1
145.2,108,13.7,2
145.13,105,13.31,7
335.31,170,10.29,0
200.33,178,8.9,6
141.28,70,16.93,1
283.48,136,3.45,9
117.25,81,19.34,8
173.56,97,9.65,3
141.23,50,11.18,1
166.31,118,12.05,2
213.98,85,15.02,3
188.75,120,6.87,6
320.92,198,8.2,0
299.56,158,5.63,9
158.58,104,9.63,7
154.38,55,13.19,1
138.46,56,12.36,8
258.07,128,14.35,5
167.18,77,13.61,1
131.28,63,12.33,1
204.94,145,9.46,6
343.96,146,5.74,0
150.0,62,15.94,1
124.0,56,18.99,8
167.84,114,10.18,2
140.05,128,12.85,7
248.75,162,9.73,4
196.72,115,12.96,3
156.45,93,14.84,7
233.07,159,6.74,4
294.71,156,11.76,0
120.05,50,19.84,8
142.65,93,8.1,7
158.36,87,10.75,3
239.39,178,8.82,6
175.13,127,10.53,2
253.2,158,8.15,5
249.04,206,5.62,4
310.9,198,9.12,0
196.99,171,7.57,6
195.64,70,8.08,3
184.05,109,8.19,3
117.52,69,14.24,8
183.35,146,8.33,6
290.7,192,10.46,0
119.92,78,13.41,8
201.93,129,14.62,5
172.33,92,11.12,2
144.95,117,13.35,2
210.79,150,10.81,4
239.02,167,9.54,4
289.92,153,5.38,0
215.57,132,6.95,6
253.22,176,11.24,0
131.01,57,12.17,8
258.82,123,9.93,5
224.24,141,7.02,5
164.65,114,14.01,2
311.85,157,5.27,0
205.56,88,10.24,3
303.04,185,10.12,0
314.85,183,9.64,0
174.95,103,10.33,7
141.1,106,14.13,7
144.92,108,8.93,7
103.55,57,13.18,8
178.46,111,13.45,7
242.19,162,9.25,6
159.06,60,19.96,1
158.6,91,10.39,2
266.81,186,9.01,4
216.38,130,9.93,5
146.37,74,17.09,1
146.58,84,11.39,8
160.13,109,10.59,2
330.55,200,6.61,0
142.07,68,18.1,1
272.69,141,10.41,0
239.44,205,8.34,4
120.91,65,15.42,8
124.99,54,16.92,8
143.41,55,11.8,8
248.71,168,4.27,9
168.4,107,9.91,7
109.1,65,18.11,8
212.42,149,7.07,5
252.35,152,9.22,0
247.12,135,7.01,9
146.87,74,17.87,1
115.67,70,10.14,8
226.13,207,5.94,4
284.83,168,5.58,9
206.43,71,14.03,3
152.34,94,8.45,7
147.56,96,8.67,7
234.43,171,8.45,6
178.47,78,12.98,3
202.72,134,6.27,6
151.11,108,11.82,3
210.57,133,11.96,5
200.73,164,10.45,4
208.45,160,8.35,6
133.58,71,15.49,1
173.86,106,15.57,3
135.21,64,19.77,1
134.46,70,14.69,1
218.53,138,12.35,5
219.98,159,8.86,6
171.71,115,8.22,3
168.84,125,16.93,2
201.91,85,9.7,3
263.21,171,6.7,0
153.21,81,12.89,3
257.9,142,6.27,9
200.59,184,6.93,4
190.84,172,9.41,6
154.33,124,12.3,7
195.13,131,7.07,5
215.15,189,7.19,4
264.84,135,12.47,5
200.0,177,8.7,6
117.44,60,14.89,8
233.8,163,5.42,9
212.22,106,11.35,3
328.53,157,6.93,0
292.24,134,3.38,9
234.1,149,5.13,6
152.41,76,17.4,1
144.45,59,14.95,8
309.76,179,6.78,0
194.89,133,11.23,5
130.25,80,16.29,1
276.4,161,7.17,9
166.57,118,9.42,7
244.15,196,10.77,4
146.16,113,14.45,7
149.77,111,10.69,7
147.51,111,15.65,2
144.16,61,10.86,1
125.02,56,10.85,8
190.57,139,8.91,5
149.44,104,16.6,2
275.33,138,4.83,9
286.65,190,11.99,0
257.92,136,4.21,9
231.78,154,5.41,6
243.85,111,9.66,5
237.64,159,11.27,4
130.56,79,18.97,1
136.41,68,11.19,8
199.77,158,9.07,5
143.83,91,9.04,7
267.54,166,3.62,9
240.18,132,3.57,9
194.09,160,8.51,5
144.94,124,8.4,7
157.58,105,13.81,7
194.03,131,9.45,6
173.01,111,14.61,3
156.4,69,17.49,1
280.89,145,6.67,9
166.84,103,8.75,7
272.13,164,3.84,9
267.43,161,7.94,9
164.19,61,18.67,1
184.0,149,8.2,5
101.32,60,19.27,8
236.69,176,6.56,6
197.79,91,10.53,3
248.24,170,7.91,9
159.93,129,10.33,2
165.39,93,12.26,7
227.39,165,7.44,6
169.47,80,17.39,1
177.15,114,11.02,3
196.37,154,7.91,6
176.09,90,12.29,2
130.29,74,19.93,1
208.03,207,6.94,4
344.03,169,7.94,0
163.42,124,13.21,2
166.13,101,12.26,7
268.18,198,5.83,0
288.93,148,4.69,9
291.46,155,8.13,0
176.09,108,11.86,2
127.74,58,17.61,1
105.01,75,13.26,8
193.63,112,10.35,3
240.9,155,9.11,6
164.56,55,14.2,1
220.06,172,6.99,6
263.43,161,9.65,4
185.68,70,10.08,3
258.68,149,7.32,9
151.17,111,14.23,2
345.21,187,8.38,0
177.12,116,9.86,7
169.18,103,14.65,7
157.3,96,12.86,7
191.8,169,8.58,6
204.12,143,9.95,6
235.23,138,14.63,5
253.69,140,12.77,5
264.35,216,5.0,4
159.51,107,11.14,2
259.81,156,8.46,4
140.94,106,11.56,2
278.05,192,6.17,0
124.46,85,18.2,8
152.49,95,12.46,7
247.81,171,6.46,6
130.48,84,11.62,8
168.09,69,10.42,1
292.45,169,3.29,9
212.44,185,11.29,4
248.19,139,4.89,9
201.33,213,9.97,4
206.69,105,14.7,3
147.2,92,13.89,2
103.0,56,13.5,8
195.55,149,5.83,6
165.59,62,14.08,1
147.54,130,12.28,7
196.45,136,7.92,6
149.43,82,10.52,8
140.04,61,18.09,8
132.41,55,19.25,8
283.46,172,7.46,0
184.38,156,6.58,6
174.42,96,16.89,2
259.45,135,12.35,5
264.68,188,11.84,4
124.57,80,13.45,8
141.97,98,15.6,2
132.39,62,19.02,8
154.0,125,10.62,2
173.34,76,14.23,3
131.72,65,15.0,8
324.81,157,5.32,0
107.7,84,11.04,8
152.97,78,15.24,1
136.18,89,12.61,8
208.48,129,11.64,5
231.28,176,5.05,6
199.71,159,5.32,6
158.04,112,14.08,7
191.84,138,6.57,6
257.02,162,6.27,9
140.58,64,17.65,1
259.75,129,13.51,5
215.14,188,6.56,4
304.4,177,6.5,0
149.91,111,10.98,2
202.66,111,9.78,3
161.09,129,12.14,2
234.99,169,5.8,4
234.44,153,6.78,9
335.98,164,10.42,0
247.68,153,7.11,5
159.86,108,10.19,2
300.32,178,10.27,0
217.48,162,10.38,4
151.52,91,13.14,7
115.38,69,16.01,8
285.37,151,3.54,9
271.5,166,4.12,9
231.07,162,5.07,9
204.48,143,5.08,6
132.92,59,16.48,8
183.2,172,8.92,6
162.71,103,16.13,2
168.42,67,14.72,1
158.5,119,10.82,7
276.95,134,4.49,9
151.29,129,12.89,7
164.59,85,13.71,3
213.58,183,11.94,4
210.86,161,8.5,6
251.25,191,11.93,0
123.83,53,11.9,8
279.07,162,7.34,9
152.72,125,13.65,7
124.05,60,12.2,1
203.29,176,5.52,6
162.19,117,10.8,7
316.76,149,7.27,0
169.74,126,9.94,7
254.36,181,6.37,4
216.32,154,9.87,6
204.76,95,9.66,3
273.67,149,6.57,0
298.32,135,3.21,9
262.47,159,9.1,5
235.36,125,7.74,6
329.67,146,8.83,0
165.85,76,16.98,1
271.19,144,6.79,9
154.17,94,16.38,2
239.4,113,13.87,5
146.87,50,19.99,1
178.56,118,12.92,7
297.89,166,4.42,9
217.27,112,8.31,3
107.83,53,15.97,8
237.44,200,9.92,4
149.44,86,14.86,8
207.13,148,6.86,6
147.12,110,15.93,2
258.89,128,14.95,5
141.73,87,13.07,8
282.52,138,4.39,9
101.74,90,16.97,8
249.23,158,7.55,9
291.48,146,5.48,0
292.57,182,8.89,0
171.21,122,11.59,2
265.3,148,7.68,0
127.52,78,14.44,8
180.62,111,12.4,5
264.62,135,9.93,5
132.48,64,10.61,1
234.43,141,4.58,9
114.48,77,15.46,8
121.52,62,13.37,8
159.46,79,8.01,3
226.86,158,9.37,6
144.35,114,16.09,2
170.72,107,12.39,2
186.9,153,13.17,5
184.41,145,14.64,5
269.1,208,10.79,4
249.51,159,8.01,6
206.66,175,11.62,4
306.02,154,8.69,0
139.07,86,14.07,8
136.34,63,12.21,1
148.02,102,16.59,2
108.54,56,17.89,8
219.44,113,14.2,3
122.8,78,12.26,8
160.12,111,14.39,7
134.61,76,12.42,1
158.13,112,15.17,2
241.11,138,7.74,9
145.49,76,12.17,8
235.25,128,13.79,5
245.82,170,4.64,9
217.49,88,10.52,3
258.84,149,10.91,5
279.59,130,3.15,9
154.98,55,16.17,1
215.33,100,9.04,3
208.8,194,7.08,4
258.02,179,11.07,4
223.12,219,9.84,4
144.59,123,9.31,7
171.73,107,13.57,2
253.63,185,9.84,4
218.86,186,7.01,4
239.17,122,9.83,6
135.35,50,15.27,8
144.8,120,10.97,7
256.63,111,12.65,5
282.05,182,11.55,0
157.3,129,15.2,2
303.62,195,5.18,0
212.95,93,8.14,3
145.61,70,11.72,1
164.39,64,10.8,1
169.72,106,14.86,3
293.43,132,5.88,9
195.53,74,9.68,3
128.05,75,18.4,8
266.24,212,11.5,4
202.32,115,13.18,3
167.97,63,16.59,1
149.02,63,10.27,1
126.53,74,16.78,8
169.18,99,11.44,7
265.48,136,4.22,9
157.98,120,11.07,7
101.78,50,19.18,8
240.74,170,8.54,6
285.26,133,7.06,9
156.84,109,12.98,3
202.93,162,6.34,6
142.67,106,17.24,2
183.61,114,9.54,3
257.35,152,6.07,0
147.53,103,13.92,2
100.38,73,12.32,8
243.53,173,9.58,4
180.91,128,6.49,6
252.64,128,11.13,5
157.09,90,10.06,2
126.11,81,13.36,8
146.55,108,11.1,7
246.88,159,6.47,6
174.49,101,17.08,2
150.06,73,12.07,3
159.26,111,17.94,2
251.98,186,10.07,4
161.34,122,15.86,2
184.73,153,11.64,5
276.26,159,5.97,9
294.68,148,5.14,9
150.21,67,15.52,1
284.42,154,5.15,0
144.05,120,8.42,7
290.15,152,11.47,0
155.57,103,14.98,7
212.25,132,7.19,6
268.32,172,11.56,0
127.82,66,13.46,8
166.19,94,12.56,7
161.43,128,12.39,7
110.02,63,12.88,8
215.5,207,6.37,4
146.57,113,12.73,7
194.93,180,6.57,6
140.89,114,10.79,2
143.47,110,12.36,2
183.61,124,9.41,6
162.29,128,14.17,2
129.48,56,17.37,1
327.55,169,9.52,0
105.56,63,20.0,8
143.12,107,9.92,7
215.06,127,12.38,5
337.8,174,7.8,0
264.16,173,5.53,4
150.92,108,16.8,2
175.62,108,14.66,7
230.62,149,14.97,5
244.89,152,3.74,9
146.18,75,18.35,8
253.04,130,10.72,5
145.93,126,11.42,7
188.83,139,9.65,6
170.52,93,14.82,3
186.45,147,11.69,5
128.24,76,18.25,8
212.92,161,6.5,4
172.81,109,11.2,7
177.25,107,10.8,3
286.26,148,4.34,9
110.76,90,17.63,8
144.41,117,12.41,2
202.65,112,7.64,5
168.17,59,11.94,1
169.68,108,10.32,2
201.49,190,6.12,4
265.08,212,10.52,4
149.58,120,14.27,2
205.75,214,5.5,4
143.29,63,10.82,8
269.26,124,7.99,5
167.29,79,11.87,1
252.27,165,5.85,0
343.29,186,5.69,0
214.35,180,6.08,6
234.82,136,7.57,9
297.79,142,7.5,9
156.91,109,9.03,7
247.1,193,10.9,4
266.13,150,3.09,9
241.59,128,5.77,6
166.72,109,14.48,7
162.07,56,13.19,1
248.71,144,5.36,9
177.89,87,11.17,3
161.75,102,11.64,2
316.68,186,8.57,0
128.27,78,16.09,1
245.86,155,7.42,9
250.22,171,6.01,4
156.58,115,12.0,2
241.18,163,5.22,9
150.4,117,13.11,3
160.58,128,17.24,2
224.02,127,8.14,5
295.86,149,3.11,9
205.37,165,9.85,4
191.74,133,12.34,5
192.1,97,11.74,3
179.44,114,10.8,2
156.07,108,13.29,7
289.22,182,10.73,0
279.87,195,9.74,0
201.02,152,9.8,5
128.51,62,17.69,1
157.05,98,8.46,3
159.78,61,16.51,1
195.01,141,7.48,6
249.48,164,5.19,6
109.21,83,14.14,8
338.14,149,7.62,0
131.54,87,19.68,8
124.14,59,17.04,1
258.18,216,9.23,4
145.29,93,12.31,2
156.45,104,11.99,2
117.91,78,19.42,8
259.38,191,5.16,4
164.34,64,15.17,1
329.47,147,7.34,0
273.62,154,5.51,9
174.82,93,11.4,2
205.85,85,9.71,3
251.42,169,6.48,0
248.91,141,6.98,6
180.69,109,14.8,3
132.08,75,18.56,1
211.74,82,15.1,3
249.41,134,10.39,5
141.62,67,18.56,8
217.65,109,9.1,3
220.73,125,12.4,5
312.36,174,7.11,0
157.3,53,18.31,1
154.97,116,10.36,7
197.2,151,9.47,6
147.84,56,19.96,1
220.16,168,9.38,6
278.29,186,6.43,0
182.14,147,9.39,5
284.29,139,6.64,9
157.5,117,8.92,3
251.78,211,8.64,4
153.34,125,10.95,7
156.06,99,14.58,3
179.74,130,9.19,7
234.36,135,6.69,9
100.67,82,12.09,8
249.0,154,4.7,9
199.99,71,10.3,3
253.59,145,11.03,0
206.31,104,14.73,3
164.37,92,14.55,2
253.84,146,7.68,9
112.0,51,16.05,8
150.94,67,14.99,1
323.1,162,9.51,0
262.88,144,6.92,9
261.27,142,7.65,0
140.32,103,10.45,7
119.81,85,13.2,8
204.36,169,6.68,6
256.23,150,3.52,9
150.28,66,13.36,1
216.61,160,5.74,6
129.68,79,19.72,1
221.51,206,7.61,4
153.79,126,14.97,7
148.6,67,11.05,1
253.36,113,8.8,5
149.02,127,10.75,7
207.95,204,6.36,4
140.23,99,13.37,7
122.31,79,11.5,1
119.98,55,15.84,8
189.66,125,10.05,5
291.77,150,7.21,9
134.19,71,14.01,8
127.03,69,12.37,8
212.06,194,6.04,4
212.52,147,11.83,5
325.54,175,5.02,0
195.63,133,10.0,6
219.47,134,7.52,6
296.3,132,4.29,9
244.66,155,4.61,9
239.98,190,10.8,4
102.7,60,13.0,8
150.56,102,9.52,7
102.65,75,19.55,8
161.45,73,12.43,1
336.33,182,10.53,0
218.55,184,8.55,4
143.97,88,15.73,8
342.82,153,6.36,0
271.04,132,6.48,9
147.32,76,11.06,8
110.3,59,19.03,8
159.49,104,12.21,2
164.09,118,10.3,7
262.54,153,11.31,4
139.18,81,17.85,8
166.94,121,10.74,7
132.21,62,13.44,8
141.6,68,17.28,8
280.79,159,5.99,9
198.68,161,5.31,6
160.78,79,10.65,1
104.19,76,11.0,8
164.99,90,15.97,2
225.84,140,14.3,5
335.33,161,8.64,0
332.72,163,6.73,0
144.84,97,10.96,7
233.98,172,8.88,6
289.59,169,4.55,9
292.53,140,10.39,0
229.75,204,5.97,4
168.9,120,14.66,7
181.34,71,14.66,3
159.43,51,19.86,1
270.96,161,7.93,9
204.21,185,5.34,4
249.6,190,10.9,4
240.19,139,7.69,6
121.29,68,12.36,1
222.93,161,7.25,6
161.65,78,8.86,3
171.75,96,17.31,2
210.31,112,12.61,3
346.96,160,6.01,0
128.77,64,19.49,1
139.15,73,19.68,1
185.75,159,6.12,6
144.53,104,10.69,7
183.72,111,8.86,3
129.35,52,13.15,1
223.94,157,6.27,6
257.75,153,11.49,0
239.72,212,5.09,4
175.77,99,13.29,7
134.36,79,10.68,8
194.63,149,7.78,5
164.16,79,13.87,1
130.07,71,16.19,1
282.2,144,6.1,9
178.58,93,15.85,3
130.68,60,16.63,8
174.91,130,10.1,7
147.57,110,11.89,2
141.6,90,13.49,2
123.61,76,17.39,1
313.51,157,7.61,0
147.92,99,14.24,2
153.34,76,11.64,1
153.48,74,14.52,1
262.76,139,5.46,9
157.26,94,8.75,7
239.53,179,10.88,4
274.94,141,3.71,9
152.09,120,12.07,7
248.46,151,11.91,5
342.04,146,7.84,0
148.44,109,12.35,7
201.47,194,11.91,4
143.45,114,9.18,7
151.45,111,9.01,3
102.96,90,15.01,8
257.7,130,11.21,5
340.25,189,5.32,0
147.75,73,14.71,1
179.72,125,12.77,7
265.13,135,4.4,9
248.87,155,10.54,4
141.14,115,17.37,2
137.04,58,12.23,8
151.78,130,11.04,7
208.32,200,7.81,4
145.93,112,15.4,2
250.23,139,4.28,9
167.7,95,8.22,7
156.07,99,12.31,2
133.93,53,18.07,1
113.16,58,14.11,8
212.78,70,13.43,3
181.64,110,15.28,3
261.87,182,7.17,4
168.76,75,18.41,1
163.6,116,15.0,2
209.03,110,12.93,5
263.19,156,10.69,4
123.92,63,14.12,8
226.06,145,10.02,5
149.61,129,14.97,2
267.99,201,9.67,4
192.37,147,8.86,5
171.94,86,15.12,3
241.9,154,9.17,5
197.26,117,13.0,5
277.55,146,11.93,0
216.89,91,14.5,3
254.02,157,6.57,9
215.2,145,14.84,5
262.32,135,5.6,9
156.17,69,13.52,1
213.96,110,15.62,3
221.36,166,6.4,6
290.56,153,6.8,9
177.86,125,12.5,7
140.94,90,14.39,7
165.28,108,12.41,7
271.15,138,3.34,9
148.22,96,13.26,2
272.89,165,9.57,0
158.23,88,9.53,3
289.12,166,5.04,9
257.39,156,7.4,5
279.57,182,9.5,0
248.35,146,9.72,6
140.33,103,12.94,7
174.26,73,15.27,3
201.34,163,8.55,6
120.81,68,17.59,8
257.42,174,5.29,4
198.88,162,6.98,6
154.86,99,13.14,7
233.28,134,5.48,6
199.73,158,10.85,5
244.41,172,7.21,4
271.94,190,6.45,0
234.22,164,7.04,9
172.16,119,12.3,3
302.1,146,7.43,0
248.77,148,3.54,9
197.91,148,5.43,6
241.99,142,12.29,5
127.33,54,16.62,8
141.39,110,11.62,2
182.68,131,11.28,5
212.57,171,5.19,6
206.81,104,11.26,3
188.92,123,6.97,6
204.19,159,9.33,4
178.5,103,8.72,7
176.12,102,9.96,3
279.63,156,10.54,0
334.74,146,8.53,0
145.38,97,10.24,7
110.23,68,11.15,8
265.87,157,6.77,0
151.37,100,10.08,3
250.23,143,12.53,5
240.2,184,5.98,4
142.78,67,18.27,1
180.13,139,8.62,5
199.82,155,9.61,6
271.03,182,10.56,0
131.6,59,12.18,1
252.99,130,3.67,9
344.7,159,7.09,0
204.08,71,9.16,3
213.96,147,10.31,5
232.67,220,7.62,4
155.33,130,16.3,2
193.98,97,14.5,3
143.06,98,9.37,7
269.86,139,5.88,9
212.38,155,5.11,6
281.19,152,4.91,9
151.11,80,15.86,1
167.32,52,11.9,1
209.67,166,9.55,6
153.76,117,12.79,3
143.36,121,14.31,2
202.97,139,10.09,5
194.32,143,7.38,6
266.43,115,9.18,5
191.79,130,14.19,5
175.51,105,15.51,2
168.14,96,12.25,7
305.59,175,7.75,0
180.72,115,14.16,3
199.35,129,9.79,6
123.81,59,15.25,1
161.81,84,14.36,3
151.65,73,12.4,3
155.34,125,14.93,2
142.57,70,15.69,8
235.2,121,5.47,6
318.91,172,10.1,0
122.7,74,13.02,1
319.32,195,8.68,0
231.47,175,9.07,6
192.84,148,6.17,6
268.19,137,3.63,9
141.52,120,14.1,7
236.53,169,9.52,6
180.89,100,8.79,3
156.48,102,17.66,2
195.01,102,13.85,3
269.95,133,7.53,9
248.34,143,6.57,6
147.32,77,15.94,1
220.86,174,5.92,6
130.61,77,16.47,1
291.28,146,9.35,0
283.03,131,3.63,9
130.88,88,16.79,8
185.15,92,11.76,3
173.92,122,17.95,2
303.01,180,8.07,0
147.71,50,12.21,8
211.03,110,8.73,5
159.79,58,11.34,1
164.48,119,16.51,2
116.58,66,11.21,8
200.33,91,10.55,3
125.51,62,11.76,1
258.01,173,6.11,4
298.31,134,5.77,9
164.76,115,13.27,7
146.77,102,11.1,2
204.17,185,11.79,4
175.94,76,11.63,3
160.02,94,12.55,2
285.03,195,5.32,0
278.85,198,5.21,0
141.84,52,12.58,8
182.17,80,8.63,3
145.08,86,14.26,8
201.06,110,13.03,5
283.84,180,6.71,0
207.64,168,10.83,4
264.21,175,11.28,4
204.52,136,10.19,5
165.31,108,11.48,2
265.76,219,8.08,4
260.53,151,5.66,9
247.78,144,4.76,9
260.48,143,5.09,9
154.72,109,12.57,2
211.56,184,11.94,4
254.61,203,10.58,4
165.37,116,10.87,3
209.53,149,6.67,6
295.96,147,4.26,9
139.63,71,18.07,1
167.39,92,13.41,2
124.8,84,18.85,8
185.62,137,7.53,6
186.5,124,13.61,5
265.94,152,7.39,5
223.09,152,8.85,6
128.91,59,18.97,1
226.75,144,8.05,5
151.64,105,13.93,7
221.99,136,8.93,5
244.65,112,8.42,5
194.47,125,12.62,5
141.29,116,17.79,2
136.0,70,13.47,8
169.66,66,14.43,1
102.69,78,12.06,8
187.91,158,13.13,5
218.49,82,11.35,3
272.28,198,7.85,0
191.59,96,13.96,3
172.86,101,8.99,7
254.65,140,7.34,0
288.06,151,8.04,0
259.22,187,9.73,4
226.04,191,8.48,4
302.22,194,6.62,0
107.25,56,19.47,8
244.77,122,9.27,6
155.98,115,15.34,2
201.15,111,11.21,3
145.66,62,11.72,8
266.14,155,8.64,0
177.75,128,15.35,2
174.84,94,11.83,7
174.39,105,9.61,3
266.6,159,5.2,4
337.55,160,7.48,0
244.86,172,5.28,4
287.53,156,6.11,9
151.79,119,11.66,2
307.67,155,6.25,0
129.3,87,12.13,8
207.39,166,8.33,4
146.89,117,12.64,7
157.15,86,8.96,3
143.33,123,10.96,2
190.76,108,9.99,3
216.21,155,13.68,5
294.9,143,4.82,9
243.73,131,8.83,5
200.86,111,15.15,3
146.96,50,17.55,8
230.69,206,8.66,4
184.28,120,12.25,5
150.97,119,14.59,2
207.58,130,5.39,6
260.47,181,5.71,4
125.57,52,15.5,1
196.59,115,11.47,3
303.05,177,11.19,0
250.99,157,7.96,9
253.88,190,10.92,4
242.64,168,5.51,9
106.08,66,10.16,8
203.39,77,14.38,3
269.93,168,8.39,0
224.92,190,5.84,4
150.7,95,9.59,7
244.64,123,9.48,5
122.54,77,11.01,1
188.86,120,14.97,3
208.32,170,6.68,6
140.97,90,15.87,2
225.54,205,7.86,4
343.66,164,8.1,0
299.9,187,5.52,0
179.74,94,10.99,2
296.48,137,4.53,9
230.15,131,13.17,5
278.59,146,3.5,9
184.47,113,12.23,3
141.62,99,9.75,7
299.08,142,4.62,9
101.49,51,12.24,8
166.99,102,15.89,2
162.32,120,13.22,7
191.4,111,12.64,3
201.83,137,14.46,5
190.01,160,12.59,5
157.62,120,12.74,3
164.33,130,10.07,7
215.96,137,5.08,6
147.99,101,12.88,7
172.69,128,10.6,7
246.76,177,5.91,6
155.37,98,12.06,7
157.86,81,15.48,3
144.44,108,14.1,2
239.23,218,10.25,4
230.68,153,13.76,5
262.74,161,5.04,9
207.9,80,9.79,3
236.6,209,7.95,4
216.96,189,11.97,4
269.41,161,5.83,9
178.43,118,10.02,7
102.77,60,16.02,8
224.2,130,9.51,6
240.87,176,10.81,4
189.89,75,10.29,3
263.3,168,4.76,9
174.1,100,11.78,7
166.08,66,13.12,1
170.28,89,10.06,3
183.3,151,9.96,5
222.1,130,7.29,6
179.76,126,12.42,7
243.07,117,10.74,5
285.26,144,5.11,9
151.81,126,14.11,7
244.62,137,14.18,5
211.71,217,9.13,4
210.54,179,7.35,6
244.46,158,6.41,4
141.02,57,13.74,1
224.51,128,7.88,6
190.44,143,10.13,5
220.79,172,8.79,6
133.36,62,16.72,8
208.62,104,10.03,3
168.62,123,14.12,2
153.55,122,15.71,2
249.89,165,7.98,6
294.32,148,3.59,9
124.93,71,18.88,1
213.88,119,7.11,5
311.51,172,8.35,0
276.33,135,3.29,9
141.62,79,10.82,8
142.89,100,14.77,2
247.57,127,7.49,6
168.43,103,11.54,7
242.25,155,10.97,5
146.98,101,10.87,7
214.75,199,9.55,4
191.05,180,6.79,6
129.29,80,19.93,1
261.98,160,14.82,5
245.54,121,5.27,6
274.64,144,7.95,9
112.33,82,17.12,8
246.71,133,9.42,5
130.92,50,11.85,8
262.27,149,5.71,9
262.94,219,5.4,4
281.53,195,6.67,0
184.73,134,12.28,5
142.51,84,14.76,8
182.51,113,8.62,3
220.71,155,8.63,4
145.1,64,17.68,1
161.53,94,10.52,7
136.37,88,14.69,8
166.46,69,13.55,1
268.89,154,7.18,0
258.57,142,3.66,9
221.07,166,7.68,6
207.56,127,11.0,5
157.01,78,12.69,1
151.84,127,11.85,7
199.46,85,12.9,3
226.84,134,5.66,6
346.68,176,11.19,0
139.3,61,19.92,8
159.79,59,13.38,1
113.98,66,14.43,8
275.48,175,8.35,0
207.18,193,7.7,4
156.62,94,14.7,2
296.09,138,5.21,9
142.32,118,13.8,2
264.58,159,5.54,4
156.06,52,16.15,1
285.71,185,6.95,0
241.87,179,8.17,4
201.56,207,7.95,4
141.51,56,17.31,1
145.21,127,8.04,7
144.52,101,13.63,2
217.71,170,7.81,4
249.74,167,9.51,4
178.9,109,12.59,7
224.35,117,14.54,5
169.33,116,14.32,2
224.74,174,7.98,6
146.48,91,10.92,7
246.86,166,4.55,9
150.71,130,17.72,2
153.39,93,8.07,7
165.36,105,17.3,2
179.68,125,10.83,7
152.5,96,15.82,2
248.21,155,7.44,5
263.78,167,5.16,9
138.43,55,15.12,8
187.85,139,7.99,6
234.84,208,5.52,4
255.56,132,5.81,9
157.19,74,11.25,1
158.81,111,13.67,2
248.03,110,12.71,5
266.57,151,4.4,9
245.3,170,6.59,6
126.73,75,18.81,8
171.6,100,17.67,2
308.17,192,6.2,0
160.61,95,10.98,7
267.86,154,5.85,0
150.1,101,9.36,7
193.92,142,13.6,5
252.99,144,10.51,5
218.34,211,10.4,4
198.78,102,8.26,3
252.85,168,3.51,9
200.67,154,8.89,4
206.68,101,8.54,3
148.91,64,14.52,8
104.49,85,12.6,8
210.95,107,12.38,3
169.66,122,14.67,2
217.2,153,7.02,5
235.44,165,7.45,9
202.21,103,13.99,3
147.92,111,13.41,7
147.77,95,11.99,2
169.65,57,11.41,1
165.79,112,13.47,2
140.41,94,14.5,7
193.66,80,11.52,3
220.34,184,11.63,4
159.78,109,12.98,2
207.01,114,13.6,5
177.27,129,15.36,2
216.28,205,7.84,4
268.6,198,11.86,0
142.74,75,12.99,8
154.57,106,15.05,2
252.78,169,11.7,0
138.78,63,10.67,8
252.44,140,6.99,0
254.27,153,6.25,0
154.53,90,12.84,2
202.22,198,11.43,4
200.82,153,7.46,4
324.58,186,8.23,0
188.36,124,8.23,5
215.68,81,9.14,3
224.73,218,8.64,4
186.73,151,14.74,5
259.06,159,7.65,9
172.61,107,11.35,3
211.88,173,7.17,4
144.91,74,12.39,8
210.18,199,6.67,4
131.63,73,10.11,8
280.33,172,7.27,0
205.67,165,5.12,6
178.96,119,11.27,3
162.29,77,19.07,1
258.36,130,11.58,5
266.22,183,11.41,4
249.84,141,13.99,5
177.21,127,14.3,7
197.56,156,12.81,5
170.74,108,9.44,3
219.58,169,8.93,6
267.22,187,9.91,4
210.11,151,8.74,4
214.1,136,9.63,5
230.99,153,4.88,9
153.27,113,13.44,2
296.9,142,3.26,9
152.98,100,15.94,2
258.21,160,9.29,4
149.21,71,15.03,1
269.82,133,8.33,5
240.86,145,5.22,9
227.27,146,7.73,6
203.14,93,13.94,3
255.25,146,5.74,9
210.42,94,9.28,3
146.76,71,11.08,8
344.55,147,9.35,0
172.72,75,11.45,3
133.64,56,15.02,8
308.09,177,5.77,0
276.01,167,7.74,9
257.59,191,10.04,4
290.7,131,7.25,9
203.1,112,12.7,3
246.08,116,10.02,5
257.48,142,6.93,9
182.36,134,12.67,5
335.5,191,9.64,0
110.95,85,18.19,8
240.59,147,3.98,9
240.43,134,13.92,5
284.16,154,5.13,9
149.66,111,14.08,2
207.83,177,6.11,4
313.05,173,5.24,0
304.23,199,10.86,0
253.27,170,6.34,9
226.79,123,8.11,5
145.08,101,9.7,7
178.49,112,10.84,2
113.14,66,12.74,8
275.99,164,3.71,9
173.71,111,14.04,3
126.89,55,12.58,1
202.74,164,6.54,6
191.12,103,12.31,3
211.05,148,8.53,6
231.74,215,6.78,4
285.33,153,3.93,9
142.08,68,18.38,8
244.13,167,5.07,9
221.38,147,6.95,6
323.01,173,7.35,0
200.38,196,11.7,4
210.13,151,11.11,5
194.6,142,8.55,6
157.36,88,9.34,3
343.89,179,9.45,0
276.85,185,7.85,0
324.44,150,7.17,0
117.19,64,14.57,8
143.85,55,18.22,1
142.27,128,13.66,7
207.72,145,8.31,6
200.27,127,14.18,5
269.69,196,11.37,4
264.25,152,8.87,0
152.03,121,11.21,2
297.27,168,6.79,0
136.79,55,19.77,1
196.52,121,11.7,5
124.08,58,19.91,8
140.64,127,12.51,2
155.2,93,10.67,7
207.83,220,8.96,4
211.06,148,7.96,6
157.17,114,17.63,2
234.4,118,14.38,5
219.11,86,11.88,3
230.21,187,5.13,4
232.99,159,9.11,5
150.37,91,11.39,2
161.45,120,17.43,2
158.72,76,12.28,3
123.38,89,16.76,8
275.92,132,6.95,9
267.75,140,7.16,0
158.93,50,13.02,1
240.89,143,7.9,6
135.25,53,11.72,8
293.33,148,7.14,9
168.94,113,13.31,2
224.64,187,8.17,4
168.4,90,13.66,2
238.61,142,6.57,9
128.87,74,16.88,1
129.07,69,18.46,8
144.52,99,14.87,7
162.73,110,14.5,3
306.17,162,11.89,0
190.95,86,11.64,3
224.68,146,10.1,5
213.35,167,8.5,6
162.15,78,14.38,3
251.53,162,5.31,4
242.44,140,10.21,5
259.14,156,6.78,0
148.35,118,13.71,2
232.07,149,7.94,9
251.39,110,7.81,5
179.55,107,11.82,3
142.58,54,19.38,1
231.93,143,6.39,6
105.43,82,10.73,8
160.23,102,11.86,2
231.44,167,6.75,6
163.31,102,15.59,2
167.81,91,12.62,7
150.91,74,18.28,1
245.15,199,8.64,4
102.56,76,13.11,8
169.03,126,16.64,2
161.77,109,13.8,2
252.16,127,7.78,5
146.3,114,10.5,7
261.6,160,11.23,0
200.59,125,10.1,5
345.29,187,6.09,0
152.57,63,15.97,1
145.78,123,15.37,2
233.46,166,5.76,6
232.04,170,9.93,6
251.87,160,5.27,0
101.33,84,12.37,8
104.92,73,17.85,8
169.36,108,14.48,7
242.92,170,7.42,6
156.85,114,8.0,7
241.34,146,8.46,5
174.95,95,12.25,7
139.61,55,16.4,1
126.6,75,17.85,1
294.68,148,6.1,9
221.69,117,9.33,5
290.98,139,3.1,9
142.09,96,13.99,7
146.93,108,8.6,7
265.32,133,6.48,9
218.88,166,6.79,4
220.32,126,7.57,6
150.46,51,18.56,1
208.41,175,11.26,4
175.2,113,15.88,2
162.9,92,10.03,7
225.22,128,6.0,6
215.68,133,6.81,6
156.12,117,14.24,3
220.81,153,8.19,6
126.25,75,10.25,8
143.22,126,9.12,7
267.7,130,4.38,9
171.96,111,11.51,7
260.3,136,7.21,5
202.12,171,5.71,6
147.94,74,14.8,8
145.76,118,9.22,7
106.85,85,19.29,8
216.47,130,9.38,6
151.96,57,15.79,1
149.06,100,12.22,2
145.27,71,15.93,8
135.8,70,18.99,1
317.61,173,7.59,0
213.6,129,14.54,5
278.3,142,9.38,0
263.94,143,7.26,9
254.56,165,6.13,9
288.92,187,10.15,0
282.92,142,5.98,9
143.52,84,10.21,8
150.02,120,13.12,2
159.65,126,17.34,2
327.83,146,8.36,0
142.95,105,9.9,7
262.91,175,5.11,0
188.96,111,13.12,5
173.07,85,11.92,3
280.62,145,5.65,9
256.86,154,6.27,4
242.24,133,7.03,5
271.62,157,10.85,0
149.13,66,10.27,1
198.65,73,11.89,3
329.85,154,9.55,0
344.57,175,5.54,0
266.41,146,13.51,5
142.72,75,14.34,8
183.54,101,10.61,3
181.53,103,10.55,3
140.64,118,15.04,2
268.06,152,6.47,9
149.27,73,18.29,1
165.93,74,15.26,1
176.93,80,12.47,3
101.03,83,16.62,8
209.58,168,8.61,6
108.43,89,14.27,8
139.47,60,15.93,8
189.49,173,6.74,6
253.93,196,8.48,4
188.74,82,12.1,3
198.87,71,12.64,3
252.59,132,3.93,9
229.84,135,5.83,6
136.75,54,11.6,8
219.61,154,5.47,6
295.11,149,7.97,9
116.45,77,15.4,8
207.98,173,8.32,4
146.12,110,10.85,7
160.97,91,8.6,7
133.47,59,13.24,1
250.07,163,11.03,4
242.04,167,7.64,6
191.03,133,14.7,5
145.3,114,10.13,7
247.37,148,6.08,6
348.79,178,11.66,0
159.06,120,13.62,3
171.13,109,11.51,2
148.28,128,8.51,7
219.8,114,13.03,3
227.21,128,5.7,6
143.83,72,10.8,1
304.45,161,8.54,0
152.17,87,15.2,3
161.9,120,17.7,2
281.25,161,4.31,9
155.42,91,15.37,2
265.18,160,7.52,9
209.36,153,6.94,6
298.66,148,5.92,0
112.23,87,16.27,8
172.07,92,16.06,2
269.51,133,11.37,5
268.77,174,5.07,0
138.64,90,15.72,8
167.85,57,13.37,1
207.72,182,11.83,4
213.48,173,6.04,6
250.97,159,7.7,9
169.18,98,10.04,7
276.69,134,5.51,9
211.14,156,10.34,5
142.79,70,15.35,1
114.78,75,19.55,8
149.18,97,12.13,7
209.58,121,9.58,6
230.18,172,9.55,6
141.2,59,13.98,8
266.24,177,11.19,0
250.47,165,7.71,0
140.03,58,19.52,1
251.08,170,5.68,0
129.17,83,17.89,8
213.94,152,13.05,5
257.67,152,6.43,9
149.53,116,13.78,2
296.87,140,3.33,9
200.15,155,9.3,6
161.01,118,16.3,2
150.09,107,11.8,2
152.8,109,13.36,3
233.95,148,7.45,6
243.32,171,8.98,4
142.21,74,10.84,8
102.17,72,10.37,8
269.94,131,7.55,5
112.82,51,17.02,8
174.56,93,11.79,7
228.09,154,9.19,6
111.01,75,15.71,8
209.87,157,5.46,6
151.16,95,13.88,2
337.13,147,10.93,0
211.7,128,8.58,6
340.41,195,10.33,0
157.41,96,13.52,7
196.86,131,8.04,6
211.58,167,7.22,6
147.61,72,14.9,8
155.22,111,11.07,3
133.58,58,14.82,1
207.71,209,10.73,4
139.02,74,12.93,1
205.91,186,11.65,4
226.24,162,9.32,6
145.04,105,13.16,7
338.88,176,8.06,0
156.09,74,8.16,3
270.33,161,8.51,0
191.24,72,9.82,3
151.35,110,8.32,7
153.54,111,12.28,7
269.22,141,7.25,5
329.1,175,11.72,0
259.53,142,6.98,0
175.06,112,12.7,7
144.45,100,10.56,7
213.0,81,15.46,3
343.69,159,6.59,0
197.3,113,8.26,3
339.63,144,9.08,0
288.28,162,8.66,0
155.04,99,8.27,7
260.16,126,14.74,5
321.62,140,9.62,0
292.6,154,4.81,9
244.79,179,5.14,6
268.31,132,10.7,5
273.74,155,3.5,9
246.85,114,13.48,5
307.66,148,5.18,0
257.63,152,5.2,4
219.78,128,7.67,6
215.06,162,5.14,6
141.72,68,12.86,1
208.41,135,9.12,6
243.09,168,10.11,4
227.6,152,8.35,6
205.25,171,5.94,4
262.17,123,10.05,5
225.71,155,9.18,4
146.11,67,17.54,8
170.1,90,13.97,3
155.32,114,9.06,3
207.79,156,10.39,4
174.26,101,8.56,7
230.09,208,8.47,4
208.35,150,6.4,6
207.4,140,9.31,6
147.15,100,8.12,7
213.26,170,6.71,6
177.63,96,8.74,3
274.37,158,6.41,0
119.06,74,19.94,8
136.27,62,11.37,8
216.29,167,9.98,6
327.56,188,7.83,0
253.24,216,6.04,4
158.31,99,10.05,2
209.98,161,10.32,4
209.64,108,9.61,3
109.72,79,15.51,8
210.83,193,8.87,4
148.4,100,13.43,2
288.16,141,7.42,0
253.92,151,6.1,9
217.61,70,11.82,3
153.51,92,11.75,7
292.94,145,3.77,9
158.53,117,12.74,3
287.51,158,7.8,9
254.97,150,8.69,4
159.45,106,10.63,7
229.17,206,7.57,4
305.85,198,6.75,0
136.03,62,14.41,8
252.22,151,13.86,5
217.05,82,8.73,3
268.59,150,8.5,0
256.51,169,6.04,9
141.66,107,14.24,7
202.68,126,10.74,5
161.18,77,13.93,1
226.08,162,6.55,6
206.88,87,13.97,3
205.83,217,11.35,4
153.42,97,11.15,2
126.89,83,11.57,8
206.79,160,10.15,4
248.4,141,6.88,9
344.13,157,10.25,0
160.06,108,16.35,2
228.41,152,8.48,6
241.47,146,6.46,9
107.68,82,17.14,8
243.01,154,3.73,9
251.44,176,8.29,4
141.54,84,15.43,8
288.67,155,4.9,9
277.59,189,7.78,0
135.41,61,12.44,1
282.61,166,6.41,9
337.74,162,8.39,0
174.34,91,13.37,7
209.61,89,11.13,3
240.74,169,5.53,6
269.86,175,7.86,4
160.66,98,10.24,7
344.14,156,11.72,0
184.9,79,15.7,3
230.33,152,8.12,6
133.72,68,19.18,8
152.76,63,18.89,1
250.66,171,8.72,0
156.92,95,11.87,2
144.67,108,13.49,2
147.96,54,11.48,8
219.51,117,12.33,3
222.67,124,6.66,6
263.67,215,7.35,4
288.75,150,8.7,0
201.85,114,8.2,3
187.1,112,9.49,5
227.1,131,7.01,6
104.18,79,15.41,8
239.32,122,7.19,6
260.64,166,3.3,9
164.09,51,19.86,1
233.72,132,3.05,9
151.27,128,10.18,2
243.8,130,5.85,9
168.14,82,9.44,3
127.08,80,14.85,1
255.49,199,6.9,4
211.28,153,9.36,4
203.09,82,14.5,3
247.65,156,9.88,4
340.26,198,8.93,0
128.89,55,18.64,1
171.6,98,9.39,3
326.84,147,10.96,0
158.97,96,10.88,2
256.11,152,4.81,9
204.36,86,11.5,3
132.6,74,13.32,1
233.81,139,6.33,9
263.86,133,6.66,9
135.2,73,15.32,8
271.78,164,11.02,0
130.92,59,17.7,1
237.29,213,9.64,4
166.83,120,11.8,3
193.71,156,5.91,6
280.66,151,3.98,9
258.13,211,9.34,4
261.53,158,5.39,9
170.65,130,12.13,2
168.19,93,16.98,2
221.98,151,5.13,6
169.11,108,12.56,7
155.6,68,18.03,1
238.74,122,14.93,5
156.61,106,17.97,2
106.31,55,12.72,8
155.65,95,10.73,7
254.76,208,5.42,4
277.92,132,6.74,9
212.19,90,12.04,3
175.01,97,13.53,2
102.13,55,12.88,8
161.3,127,17.15,2
103.13,70,19.34,8
148.17,129,14.11,2
233.13,158,6.63,6
177.04,121,14.89,2
188.45,83,15.98,3
147.15,74,12.43,1
144.96,51,14.16,1
340.22,186,6.53,0
258.69,134,13.81,5
325.17,200,9.78,0
133.31,68,18.7,1
265.98,162,8.0,0
311.2,188,8.63,0
245.06,157,3.24,9
211.94,168,7.3,6
168.47,111,12.49,7
282.74,152,7.91,0
161.58,107,11.99,7
279.3,147,3.62,9
141.9,103,11.45,2
144.46,104,11.47,7
212.88,103,11.4,3
168.97,93,9.67,7
195.41,148,9.36,6
137.45,80,17.92,1
335.82,166,11.18,0
155.46,103,13.97,7
244.54,140,14.46,5
274.28,153,6.64,9
266.66,191,6.63,4
149.84,107,10.22,2
224.5,166,10.23,4
169.25,115,13.21,3
178.7,126,8.1,7
147.12,118,14.19,2
146.83,119,13.88,7
163.47,126,9.66,7
202.38,112,7.67,5
189.89,106,9.39,3
309.12,186,11.39,0
245.1,124,14.99,5
235.57,139,13.53,5
245.01,165,4.09,9
326.33,163,5.1,0
233.37,149,7.19,6
215.4,186,5.44,4
251.21,151,10.35,0
171.62,72,8.85,3
193.3,114,13.31,3
321.06,192,9.09,0
344.31,171,7.25,0
251.04,167,5.9,4
226.78,153,11.48,4
147.21,78,15.89,1
240.17,199,11.61,4
287.86,193,8.6,0
127.73,80,14.55,8
261.81,155,5.66,9
255.66,123,7.07,5
205.05,177,9.51,4
201.89,153,9.89,6
223.3,217,9.22,4
129.63,64,17.31,1
181.31,114,14.5,5
179.37,84,15.84,3
142.86,93,8.26,7
193.34,133,7.09,6
230.69,216,7.79,4
127.97,65,10.23,1
194.21,119,10.82,5
160.57,118,15.81,2
136.43,60,18.42,1
230.29,157,7.31,9
142.72,57,13.61,1
218.6,96,8.89,3
260.97,177,11.48,4
144.95,101,11.44,2
277.47,133,3.43,9
146.59,93,17.24,2
117.46,61,17.11,8
240.66,163,10.29,4
100.11,56,11.97,8
173.41,101,11.2,3
185.04,124,11.28,5
208.41,163,7.32,6
107.85,77,16.15,8
212.43,122,9.04,5
193.42,77,10.65,3
327.12,148,6.86,0
205.75,156,5.59,4
249.17,145,11.66,5
149.08,72,17.81,1
201.08,197,5.12,4
132.39,82,16.69,8
230.01,156,5.7,9
195.32,116,10.29,5
172.36,113,13.31,2
236.16,122,5.52,6
205.09,129,9.34,6
304.89,159,7.23,0
211.65,194,7.39,4
226.95,174,9.14,6
160.98,105,14.25,7
281.07,130,6.08,9
210.52,106,11.59,3
106.78,82,15.03,8
135.12,56,16.44,1
167.13,124,14.46,7
176.3,114,14.43,7
165.9,113,8.11,3
132.27,77,19.94,8
191.13,93,15.65,3
173.44,101,10.07,2
174.13,97,11.83,2
196.7,164,8.23,6
268.74,190,11.41,0
218.42,199,7.5,4
283.8,165,5.96,9
113.8,59,18.81,8
219.95,83,12.54,3
175.52,93,13.92,7
218.35,85,15.75,3
190.39,122,6.24,6
142.98,102,12.34,2
217.01,125,14.49,5
148.27,112,10.72,7
161.95,102,12.59,7
221.4,216,11.35,4
169.84,98,8.55,7
104.48,76,13.4,8
241.16,134,9.8,6
108.09,83,10.37,8
239.24,154,13.83,5
299.68,159,5.38,9
100.36,67,19.43,8
257.79,159,9.63,5
166.29,90,14.12,2
199.07,114,8.86,3
277.82,166,10.86,0
144.87,54,14.93,1
122.92,70,14.3,8
205.88,169,6.02,6
148.37,110,11.04,7
227.45,195,8.19,4
303.03,146,10.84,0
129.1,83,10.9,8
119.93,83,16.46,8
143.93,95,10.49,7
172.49,130,9.43,7
158.76,58,13.73,1
212.96,137,10.17,5
230.78,176,6.99,4
177.71,123,8.56,7
225.07,208,11.09,4
257.65,206,9.69,4
221.23,139,8.7,6
243.07,135,5.72,6
103.42,68,16.91,8
197.19,167,9.25,6
210.76,104,11.37,3
155.59,104,14.56,3
306.59,151,5.61,0
156.89,75,18.93,1
257.88,155,3.41,9
142.86,75,19.55,1
154.33,112,12.27,2
293.2,146,6.93,0
148.07,57,12.46,8
187.86,169,9.96,6
200.45,95,15.5,3
137.98,77,16.63,1
167.9,64,16.62,1
179.84,92,15.89,2
206.9,185,5.12,4
234.3,198,11.52,4
167.74,97,16.57,2
138.2,90,18.89,8
256.18,162,10.65,4
241.99,171,8.7,4
123.74,76,12.74,8
161.13,92,12.7,7
226.48,203,5.68,4
205.31,167,9.97,6
263.81,143,9.03,5
128.69,66,13.18,1
210.37,135,5.1,6
159.08,100,15.86,3
333.11,197,7.34,0
127.11,67,18.81,1
297.35,160,5.92,0
244.89,172,8.9,4
131.67,73,19.96,8
217.48,170,9.08,6
116.17,71,10.76,8
216.16,173,9.82,4
146.11,54,17.65,1
185.01,173,9.79,6
233.25,142,3.99,9
247.73,143,9.01,5
183.52,156,14.38,5
179.3,103,17.83,2
125.12,62,18.51,1
122.28,55,18.08,1
173.07,85,12.94,3
164.05,82,8.52,3
170.96,102,16.98,2
121.39,81,17.73,8
223.36,158,6.63,4
295.19,135,3.1,9
158.88,101,11.0,7
298.04,141,7.91,0
242.96,130,5.81,6
139.81,63,11.72,1
312.05,165,9.86,0
225.85,131,10.78,5
172.89,104,8.35,3
168.92,72,13.27,1
230.52,119,9.7,5
143.25,56,12.87,1
330.43,198,8.73,0
322.08,153,6.7,0
133.21,60,18.13,8
145.52,118,13.79,2
267.31,114,11.24,5
115.28,54,14.86,8
236.2,166,5.2,9
311.26,149,10.36,0
220.38,200,5.37,4
273.44,165,7.49,9
120.57,50,19.2,1
341.2,165,8.29,0
143.61,115,9.26,7
176.64,110,9.49,7
346.9,159,11.34,0
260.03,182,6.18,4
267.71,131,6.32,9
193.94,117,11.58,5
158.66,102,10.65,2
147.15,59,14.06,1
300.19,142,6.11,0
322.3,164,7.94,0
164.74,112,8.73,7
235.91,153,9.58,6
116.73,69,10.29,8
260.05,160,6.95,4
229.16,203,7.62,4
251.54,163,5.27,9
217.57,153,7.6,5
183.72,129,9.2,5
198.16,154,5.21,6
283.64,196,8.32,0
289.42,187,11.14,0
301.04,149,8.52,0
131.74,60,11.28,1
165.29,50,19.8,1
148.88,123,9.97,7
148.16,90,13.32,2
237.1,158,10.01,4
142.05,68,15.46,8
140.62,113,13.01,2
234.07,114,13.47,5
225.71,156,7.44,6
197.53,116,11.99,3
273.76,144,5.1,9
258.01,114,9.78,5
121.93,77,18.56,8
205.16,111,11.89,3
295.85,163,3.33,9
115.12,61,16.67,8
156.17,96,10.95,2
194.65,159,11.1,5
121.37,52,18.34,1
237.48,161,3.7,9
153.82,120,12.41,7
153.02,74,10.81,3
144.71,93,13.77,2
164.28,102,15.99,2
232.71,171,7.27,4
147.11,93,15.54,2
255.69,166,8.45,0
200.14,115,13.18,3
161.52,112,14.47,7
253.93,156,5.33,4
124.17,55,17.24,1
121.05,52,14.67,1
215.85,123,7.46,5
171.29,103,16.6,2
257.39,121,13.89,5
257.86,169,11.44,0
249.92,140,5.37,6
210.67,136,12.82,5
100.07,79,13.88,8
236.14,154,7.94,4
205.71,193,6.45,4
167.01,104,12.0,7
119.34,75,18.48,8
250.06,166,3.03,9
207.56,72,15.89,3
172.48,111,10.95,7
167.7,91,12.78,2
231.68,165,11.32,4
173.89,109,8.92,7
152.97,107,9.74,7
169.47,106,9.91,7
108.41,70,16.59,8
226.2,161,10.62,4
116.65,78,13.45,8
156.15,68,10.75,1
263.62,135,4.2,9
259.54,133,6.08,9
246.43,129,14.76,5
263.38,132,9.49,5
293.76,166,8.16,0
180.39,150,7.78,6
220.27,206,8.84,4
234.31,130,4.36,9
173.81,108,17.44,2
187.35,91,10.0,3
197.46,84,10.27,3
106.17,84,17.99,8
163.58,60,10.55,1
198.17,71,10.53,3
232.75,144,4.85,9
144.2,121,16.94,2
143.09,60,16.92,1
242.85,144,9.28,5
139.25,87,10.01,8
238.12,142,9.67,5
162.78,106,12.35,2
186.35,155,9.87,5
292.31,142,4.49,9
171.87,120,11.53,2
162.11,74,10.71,3
177.27,91,16.14,2
185.73,77,14.08,3
214.54,139,6.52,6
132.46,54,14.34,1
168.94,101,9.05,7
141.48,103,13.05,2
248.49,134,7.63,6
212.23,150,8.94,4
155.94,78,17.95,1
143.92,130,11.12,2
171.76,90,14.83,7
266.56,177,5.77,0
136.54,51,13.48,8
100.82,80,19.31,8
226.58,120,14.52,5
163.09,129,11.25,2
184.85,148,14.74,5
343.68,177,5.48,0
161.94,127,11.91,7
221.04,146,7.06,5
138.16,88,19.08,8
204.23,155,13.13,5
216.47,85,8.17,3
294.72,196,10.97,0
242.16,165,6.47,6
201.64,187,10.08,4
162.35,127,9.23,7
162.05,92,11.1,7
226.7,164,7.15,6
187.24,130,8.59,5
260.83,193,6.32,0
180.21,154,8.96,6
288.28,166,6.72,0
242.16,141,5.07,6
200.15,211,5.59,4
162.99,98,12.43,3
341.59,170,7.25,0
258.28,130,9.77,5
179.31,119,10.03,2
267.37,115,8.76,5
259.4,193,7.27,0
212.41,175,9.31,6
156.3,112,14.06,7
108.98,50,14.95,8
331.0,145,11.01,0
150.29,65,19.42,1
246.17,154,5.51,6
151.77,99,9.49,7
156.99,126,8.14,7
156.92,112,14.19,2
179.08,104,14.7,7
257.18,122,13.46,5
157.19,102,14.81,2
103.65,59,13.77,8
266.33,133,12.3,5
159.4,81,8.73,3
166.41,128,13.91,2
277.2,169,6.25,9
145.96,61,16.39,8
239.28,138,5.75,9
235.49,152,6.16,9
228.29,124,7.98,6
162.41,108,14.15,2
229.96,120,14.2,5
150.71,113,12.19,2
148.82,97,11.85,7
181.67,79,12.69,3
149.28,101,12.97,2
213.46,182,9.07,4
153.48,75,16.64,1
298.74,160,7.26,9
189.21,141,14.01,5
314.61,158,8.02,0
146.51,104,10.05,2
149.2,65,11.24,8
214.66,165,10.01,4
252.9,165,8.03,4
126.49,71,13.06,8
269.07,168,9.0,4
132.07,69,14.7,1
287.63,193,7.06,0
174.37,118,15.85,2
241.3,174,5.51,6
162.26,110,10.8,7
245.76,201,9.6,4
151.91,51,16.11,1
123.62,73,10.92,8
242.56,168,4.71,9
208.08,149,14.38,5
251.57,143,11.26,5
279.02,130,4.29,9
184.65,136,13.71,5
242.1,196,7.81,4
213.75,92,15.12,3
160.79,61,17.84,1
161.58,109,14.97,2
160.6,90,8.99,3
159.64,122,10.28,7
157.87,76,16.35,1
332.62,168,9.07,0
219.63,173,8.85,6
157.2,54,10.16,1
150.49,114,12.7,3
136.39,54,12.15,8
191.73,160,9.77,6
259.75,185,10.97,4
276.42,151,4.69,9
175.84,106,11.82,2
219.89,188,6.09,4
197.82,97,14.41,3
146.93,87,11.69,8
124.55,80,13.27,1
139.76,67,18.84,1
265.29,205,11.6,4
123.14,76,16.54,8
144.73,117,11.56,2
251.44,184,7.35,0
231.41,123,12.51,5
200.15,111,12.36,5
137.98,71,19.63,1
202.49,167,7.58,4
153.6,65,11.58,1
209.79,181,7.61,4
215.33,90,9.33,3
255.99,154,7.87,9
212.51,151,12.26,5
152.22,64,15.66,1
178.19,107,9.03,7
320.42,196,9.64,0
148.61,110,9.05,7
187.42,150,9.79,6
211.23,146,11.87,5
221.16,159,10.93,5
296.44,150,3.49,9
157.18,130,13.54,2
203.46,96,10.3,3
141.66,91,14.07,2
218.06,111,14.53,3
158.14,58,11.66,1
215.57,155,7.77,4
206.01,167,8.37,6
185.02,102,10.89,3
329.1,148,7.71,0
219.81,114,8.94,5
165.08,128,13.49,7
228.61,123,8.31,6
183.5,121,5.54,6
284.11,163,5.26,0
134.68,75,11.52,1
110.99,87,13.9,8
128.92,50,11.22,8
203.47,156,7.87,4
210.83,203,5.8,4
333.34,170,10.7,0
183.34,121,11.23,5
262.39,165,11.18,0
200.21,164,8.21,4
204.77,186,5.69,4
140.77,99,12.2,7
167.3,127,10.39,2
277.31,160,5.1,9
191.0,78,14.09,3
343.85,149,11.85,0
246.16,170,11.19,4
320.47,152,11.25,0
254.1,166,5.78,9
182.71,121,6.16,6
147.3,70,13.76,1
137.49,55,12.93,8
282.09,163,6.47,0
157.41,95,15.09,2
263.87,150,7.92,9
262.76,175,7.77,0
167.56,100,10.44,7
260.37,160,4.26,9
256.36,151,11.71,5
227.08,211,6.26,4
249.7,145,5.52,9
263.42,157,10.14,0
142.42,97,12.6,2
145.43,130,12.88,2
152.01,67,18.67,1
247.01,154,6.55,6
258.15,160,4.67,9
217.75,92,13.83,3
325.43,176,8.74,0
227.45,143,13.87,5
253.98,185,10.0,4
265.75,181,9.95,4
243.16,150,11.12,4
154.8,104,17.67,2
251.71,206,9.55,4
134.83,77,17.38,8
101.56,54,15.52,8
219.32,186,7.3,4
173.85,92,14.54,3
131.87,62,12.09,8
234.2,136,13.71,5
266.76,159,14.91,5
188.85,152,9.25,6
238.02,131,4.89,9
234.54,152,5.52,6
189.85,152,5.84,6
203.52,120,11.74,5
193.37,151,7.67,6
143.57,92,9.79,7
124.84,82,12.74,8
168.8,112,14.86,7
138.91,79,12.96,1
176.98,91,14.49,2
287.62,164,6.39,9
149.76,73,15.14,1
143.22,95,8.16,7
220.95,217,10.27,4
237.22,203,5.04,4
253.42,161,11.31,0
271.67,140,4.29,9
252.6,164,4.84,9
149.57,92,9.04,7
194.22,116,7.1,5
191.68,74,8.76,3
315.84,141,9.69,0
240.07,142,8.33,6
247.09,161,7.72,6
274.21,153,6.71,9
210.81,114,10.84,5
235.97,139,4.56,9
138.16,59,16.66,8
111.7,56,12.67,8
207.41,218,6.75,4
251.96,144,4.78,9
159.04,100,11.51,7
145.73,104,8.05,7
218.1,161,10.0,4
143.54,116,17.87,2
210.75,135,7.56,5
136.06,73,11.79,1
262.98,146,8.56,0
226.52,175,8.52,6
222.79,153,9.64,6
197.7,145,12.21,5
179.09,121,10.56,2
125.52,60,19.55,1
145.85,91,16.79,2
158.02,77,11.33,3
154.44,92,11.75,7
287.7,171,10.42,0
260.71,190,9.06,4
198.94,99,11.11,3
159.26,92,9.68,7
338.82,173,8.32,0
126.46,72,15.09,1
248.51,151,10.95,5
169.73,107,13.3,2
206.08,152,7.81,6
214.71,145,8.8,6
181.74,120,12.68,5
197.21,113,14.11,3
299.12,167,7.62,9
162.99,118,11.44,2
210.64,177,7.51,4
243.55,166,10.47,4
338.65,151,7.19,0
264.62,206,5.08,4
240.35,203,11.33,4
124.67,70,18.83,8
168.49,101,12.06,2
289.8,146,6.15,9
150.23,98,10.72,2
124.46,51,18.11,1
128.04,54,17.21,1
206.31,76,9.01,3
106.93,53,16.33,8
210.95,70,14.25,3
101.6,86,19.89,8
146.13,67,16.42,8
269.39,144,7.39,5
148.19,55,16.96,8
217.21,97,11.03,3
141.86,50,10.5,1
254.05,166,3.03,9
259.92,171,6.52,4
277.89,131,3.37,9
319.48,195,10.58,0
208.08,164,5.9,6
287.0,167,4.87,9
188.63,85,11.54,3
147.26,52,18.64,8
238.71,197,5.41,4
251.03,168,7.67,9
213.77,186,10.09,4
150.31,66,12.71,1
173.83,92,9.16,7
127.8,60,19.12,1
152.72,101,14.03,7
266.41,137,4.2,9
163.43,76,17.39,1
124.4,66,18.33,8
147.94,50,11.69,8
178.64,107,8.42,7
320.86,154,6.28,0
189.65,83,10.21,3
294.82,137,4.37,9
345.14,161,8.35,0
330.82,183,8.07,0
254.56,194,5.22,4
104.32,72,18.71,8
165.28,73,18.75,1
195.94,158,12.61,5
167.05,94,17.68,2
189.51,164,6.5,6
158.06,77,10.86,1
141.22,78,16.83,8
210.97,163,5.72,6
181.47,128,6.58,6
150.77,51,19.5,1
150.07,97,12.13,2
127.69,80,19.97,1
197.34,78,12.29,3
238.96,147,11.44,5
174.19,101,9.86,3
139.19,54,13.83,8
346.25,185,10.84,0
231.42,161,4.86,9
183.4,168,6.33,6
304.55,152,6.32,0
217.78,110,13.15,5
163.97,80,9.27,3
210.75,167,7.44,6
184.92,155,6.06,6
181.9,133,9.77,6
162.66,96,13.65,2
155.97,51,19.55,1
342.19,144,11.28,0
157.29,107,11.74,7
234.65,218,12.0,4
260.56,175,7.37,4
112.87,64,14.21,8
102.06,54,10.32,8
156.55,78,16.32,1
308.71,141,8.45,0
314.88,142,11.34,0
149.73,124,15.1,2
253.99,205,9.12,4
254.86,205,5.11,4
216.76,95,10.8,3
142.13,103,12.31,2
125.15,57,16.1,1
213.31,193,11.73,4
151.99,68,13.84,1
206.75,76,12.8,3
282.39,138,7.26,9
151.87,101,10.19,7
107.06,72,17.72,8
213.78,137,5.84,6
170.13,95,15.9,2
232.53,146,5.49,6
142.21,95,13.93,7
203.12,110,10.52,5
269.57,215,7.18,4
291.69,135,5.88,9
145.1,130,11.27,2
147.78,53,13.18,1
348.62,192,11.29,0
167.6,109,12.71,7
271.22,138,3.07,9
228.97,215,9.84,4
203.62,153,5.55,4
154.45,92,11.11,2
230.21,132,7.36,6
138.66,61,11.53,1
337.2,165,8.44,0
291.0,145,3.2,9
292.45,143,4.7,9
305.37,167,6.67,0
143.74,65,13.66,1
135.83,53,11.49,8
174.64,98,11.28,2
148.77,121,14.83,2
149.9,64,10.12,1
203.17,108,11.82,3
181.74,174,7.92,6
192.49,110,14.21,3
202.47,150,8.29,5
189.25,134,10.56,5
154.14,122,16.76,2
211.63,178,6.23,6
162.91,51,11.69,1
231.28,138,7.68,9
233.59,147,11.82,5
191.87,92,8.17,3
115.38,86,15.05,8
200.46,159,9.32,5
187.39,108,10.48,3
282.5,184,5.53,0
124.63,57,18.3,1
170.07,90,15.38,3
289.61,173,6.43,0
295.67,145,6.04,9
234.98,150,9.88,5
177.47,113,12.43,3
180.84,80,11.79,3
126.28,87,19.41,8
217.79,218,7.18,4
169.64,122,13.66,7
172.8,118,11.62,2
251.19,139,13.38,5
261.96,161,4.61,9
318.02,172,8.42,0
268.61,181,6.7,0
165.27,97,13.64,3
210.39,150,13.49,5
117.88,65,14.2,8
303.89,169,11.28,0
200.46,175,7.14,4
161.26,108,9.92,3
210.95,97,12.88,3
121.86,77,14.24,1
175.38,76,9.86,3
270.07,159,11.13,0
130.57,73,16.78,1
127.57,79,16.38,1
219.45,175,7.25,6
191.85,131,7.68,6
224.42,114,14.26,5
240.87,148,12.47,5
267.63,160,8.05,4
235.64,139,3.07,9
135.89,74,15.04,8
337.62,164,6.56,0
211.56,130,12.3,5
267.25,134,14.5,5
249.26,163,4.78,9
145.76,97,12.45,7
244.94,130,7.03,9
259.42,168,8.19,0
247.03,169,6.29,9
262.35,151,11.35,4
224.13,176,9.91,4
252.65,150,5.99,0
134.07,60,18.14,8
248.27,148,4.63,9
186.92,87,13.15,3
131.69,53,18.62,1
173.73,93,13.65,2
249.44,149,8.59,5
171.85,104,12.49,2
209.3,110,7.1,5
118.6,53,10.44,8
141.23,53,17.86,8
342.49,160,11.84,0
114.88,88,11.04,8
149.74,75,10.28,1
141.25,119,10.72,7
142.52,50,13.32,1
252.48,120,13.34,5
216.2,194,6.62,4
149.78,78,18.94,1
236.86,140,5.59,9
268.27,120,7.18,5
245.71,160,9.55,5
207.72,152,8.32,5
141.91,93,16.6,2
145.93,110,13.04,2
263.06,217,5.67,4
159.96,129,15.04,2
172.84,127,12.22,2
248.45,126,8.49,5
163.44,103,16.38,2
231.62,154,8.62,6
166.34,59,16.5,1
262.97,189,6.59,0
288.85,162,7.25,0
332.16,150,9.98,0
167.47,97,10.5,3
193.48,149,9.86,6
172.29,112,13.66,3
144.86,67,10.56,8
205.93,181,5.14,4
177.54,73,13.33,3
157.48,114,15.59,2
162.21,117,10.35,3
209.91,152,5.41,4
166.26,93,13.9,2
171.62,114,8.19,7
217.58,145,8.62,5
256.61,152,7.36,4
214.82,142,10.22,5
204.57,202,10.38,4
249.56,144,5.51,9
211.71,82,8.45,3
131.2,67,10.74,1
136.68,81,10.32,8
134.22,52,12.81,1
171.14,94,9.97,7
132.03,59,17.41,1
199.1,112,12.17,5
231.47,157,4.37,9
120.98,53,12.18,1
120.75,76,12.16,1
202.15,117,13.88,3
259.94,155,8.58,5
228.39,140,12.49,5
247.6,162,7.69,6
247.02,171,8.59,6
158.14,120,8.72,3
257.39,156,7.07,5
280.86,153,4.68,9
192.5,161,5.1,6
164.11,121,13.25,7
245.88,163,9.33,6
161.12,63,14.69,1
255.87,156,8.68,0
156.36,97,11.75,7
246.24,182,9.55,4
155.78,99,8.81,7
149.16,129,14.16,7
291.12,168,7.77,0
218.35,113,9.38,3
203.68,171,5.21,4
260.42,210,8.65,4
171.52,112,8.43,7
256.6,189,9.35,4
232.32,144,7.02,9
262.7,164,7.0,9
242.63,156,7.28,6
243.59,150,3.28,9
129.8,72,14.07,8
232.94,153,9.35,6
249.83,162,8.12,4
127.9,62,11.0,1
290.56,130,5.65,9
208.32,87,13.3,3
113.55,89,10.89,8
257.01,145,4.49,9
274.81,156,3.77,9
342.22,199,5.03,0
299.89,182,10.79,0
266.54,211,7.28,4
121.14,72,19.52,1
147.43,97,17.19,2
130.36,55,10.05,1
147.29,56,12.78,1
238.95,168,6.79,4
148.41,87,17.61,8
223.23,135,9.67,6
141.08,117,16.18,2
186.32,115,13.95,5
210.73,130,13.1,5
246.54,132,6.26,9
165.3,119,13.72,7
161.41,96,8.9,7
155.15,106,16.26,2
170.82,117,8.99,7
186.92,144,6.38,6
268.9,171,9.36,4
242.4,137,5.22,9
203.26,192,6.17,4
179.52,97,11.73,7
196.55,116,14.91,5
238.21,158,5.73,9
162.24,127,10.47,7
288.12,149,5.47,9
239.63,152,3.95,9
250.35,158,5.64,4
159.11,71,14.51,1
252.95,149,7.54,9
143.41,90,16.45,2
246.35,150,7.61,6
255.0,169,5.33,0
145.55,74,15.55,1
209.2,193,5.23,4
205.37,190,9.04,4
217.19,123,7.56,5
268.85,137,13.02,5
190.24,131,9.39,5
215.68,149,8.41,6
229.76,129,6.68,6
203.74,196,6.52,4
258.1,173,5.32,4
266.07,153,7.04,9
148.28,127,11.49,7
145.7,90,16.98,8
191.48,141,8.03,6
275.58,162,3.8,9
155.37,108,14.65,7
177.12,86,15.9,3
171.08,110,13.33,7
116.47,90,18.09,8
105.63,90,16.08,8
272.42,133,5.88,9
251.91,200,7.05,0
166.41,75,10.88,1
142.35,115,11.52,2
131.34,61,17.19,8
216.91,149,7.84,5
209.97,139,13.96,5
262.63,151,9.06,0
112.33,64,12.08,8
158.18,59,14.45,1
297.48,137,7.07,9
249.79,136,3.0,9
188.09,130,7.1,6
134.94,70,13.72,8
231.43,152,9.16,4
318.11,151,11.66,0
255.63,148,7.93,9
235.02,144,5.12,9
168.14,103,9.64,7
214.83,81,8.56,3
159.29,79,18.94,1
264.43,174,6.32,4
232.24,135,7.95,9
224.44,195,8.67,4
219.46,83,15.84,3
112.81,86,13.63,8
162.85,101,12.92,7
163.43,122,13.24,2
154.96,121,12.72,7
274.57,152,4.63,9
153.34,53,11.82,1
104.64,77,14.9,8
196.63,129,5.58,6
119.65,89,15.62,8
251.5,181,10.68,4
249.1,185,5.02,4
143.47,54,11.86,8
200.97,142,9.55,5
148.91,66,18.87,8
226.89,162,6.84,6
232.47,206,9.13,4
221.02,168,5.58,6
243.8,182,5.69,4
198.08,122,12.83,5
117.61,53,15.96,8
233.71,140,6.25,9
278.46,141,7.2,9
237.72,141,11.51,5
149.84,64,11.56,8
240.27,146,4.11,9
176.59,104,9.36,3
207.78,180,5.09,6
124.08,77,18.16,1
101.99,65,18.02,8
119.53,65,15.67,8
202.84,111,12.02,3
244.37,180,10.28,4
137.1,71,19.36,8
293.62,150,7.15,0
184.08,95,8.4,3
146.52,92,13.27,7
168.58,120,8.05,3
123.58,68,12.72,1
210.05,163,6.21,4
292.94,194,8.34,0
285.12,160,3.11,9
228.31,156,14.91,5
124.41,67,14.64,1
208.98,180,9.03,6
213.28,142,11.53,5
205.72,185,5.54,4
139.51,68,13.8,1
239.24,160,12.82,5
112.65,52,19.45,8
139.4,56,16.4,1
261.97,166,4.81,9
107.09,57,10.52,8
146.44,73,10.41,8
173.16,130,16.72,2
311.96,148,7.88,0
202.79,113,10.07,3
162.65,51,10.24,1
306.39,169,8.77,0
314.85,150,7.7,0
144.63,106,14.48,7
182.95,71,8.13,3
229.05,152,13.18,5
252.34,162,3.75,9
168.28,61,14.27,1
222.53,197,5.0,4
296.55,167,5.35,0
161.08,100,10.51,7
226.94,139,5.44,6
260.22,150,4.78,9
150.78,97,16.48,2
201.46,193,5.19,4
142.56,79,18.95,1
307.38,182,9.1,0
333.17,183,10.88,0
116.84,62,16.39,8
131.1,58,15.28,1
234.88,153,9.46,6
307.57,146,10.75,0
328.35,180,5.74,0
166.67,110,16.27,2
198.38,127,6.97,6
120.85,68,16.6,8
265.11,130,4.6,9
213.12,125,7.03,6
173.92,119,14.5,3
125.79,62,19.19,8
172.41,100,11.45,2
126.92,54,10.65,8
177.49,120,10.5,7
149.05,65,11.7,1
177.42,109,14.19,7
228.2,160,8.58,5
162.67,107,13.53,7
195.63,85,15.72,3
177.73,120,15.04,2
159.89,109,13.26,3
161.19,128,8.57,7
140.51,126,9.14,7
187.87,90,13.16,3
140.36,64,14.44,8
257.65,157,11.8,4
194.38,140,8.79,6
328.2,188,5.68,0
132.98,71,15.04,1
156.76,67,14.93,1
223.72,110,12.9,5
153.51,55,15.22,1
166.31,110,13.52,2
233.0,146,6.12,9
104.62,72,13.34,8
189.33,145,9.07,5
204.24,138,14.77,5
242.4,164,7.62,4
161.52,79,9.14,3
143.26,100,11.21,2
179.49,118,17.24,2
183.53,136,14.02,5
284.45,131,6.26,9
243.88,157,6.25,4
158.37,93,9.53,7
135.16,72,12.25,1
145.15,51,11.25,1
253.32,148,10.33,5
151.47,95,16.33,2
329.06,177,6.68,0
161.48,74,11.56,1
175.43,92,16.18,2
204.24,108,15.26,3
267.88,168,8.43,4
172.65,99,10.35,2
275.08,175,10.12,0
175.1,85,13.05,3
215.26,157,10.27,5
147.16,73,10.68,8
242.98,121,7.4,6
252.18,157,6.62,9
206.35,131,10.15,5
255.33,133,7.19,9
111.03,90,18.7,8
204.62,158,6.69,4
285.54,171,8.23,0
142.41,73,12.54,8
231.79,180,8.74,4
198.52,99,11.04,3
230.16,140,9.63,5
275.33,200,10.01,0
164.58,82,13.97,3
344.29,149,5.73,0
137.09,88,12.08,8
270.87,200,8.29,0
212.11,217,11.09,4
197.85,83,8.57,3
326.66,192,11.75,0
235.25,196,9.44,4
177.56,113,12.38,2
202.0,126,13.08,5
260.28,136,5.84,9
208.81,196,8.66,4
332.06,187,6.96,0
214.35,214,11.63,4
290.41,162,7.51,9
210.15,96,8.06,3
201.15,153,9.21,4
141.51,104,11.02,7
240.06,132,7.16,6
337.82,173,5.5,0
219.61,143,8.82,6
140.38,50,15.63,1
131.91,73,12.18,1
226.97,162,7.13,6
154.0,94,13.32,2
120.89,50,14.12,1
215.91,168,7.83,6
265.68,172,9.22,4
298.5,141,6.09,9
193.55,164,7.66,6
162.1,93,14.64,7
235.03,148,9.13,6
278.97,162,3.35,9
223.37,168,9.33,6
268.83,117,11.95,5
227.72,122,9.53,5
250.73,116,8.13,5
142.37,63,16.35,1
149.6,70,17.93,1
137.9,86,19.86,8
168.3,114,13.7,7
163.45,62,16.6,1
141.51,121,13.61,7
136.07,57,12.8,8
278.77,169,10.19,0
154.48,115,14.99,2
281.8,136,4.16,9
232.06,125,7.22,5
205.23,201,6.38,4
113.45,58,17.29,8
126.6,53,10.39,1
213.09,192,9.32,4
113.65,77,16.04,8
188.64,78,11.69,3
127.73,61,16.01,8
165.67,107,10.97,2
277.28,154,4.97,9
168.38,113,8.31,7
163.24,77,12.32,3
160.33,93,12.05,7
269.16,165,3.3,9
122.57,60,18.53,8
232.49,133,5.61,9
156.79,71,19.35,1
148.17,126,11.06,2
268.33,147,10.15,5
167.7,79,9.08,3
210.13,153,12.52,5
221.43,178,5.42,6
205.88,79,8.46,3
230.42,171,7.02,4
152.03,128,10.45,7
253.33,143,3.81,9
319.61,183,11.75,0
283.75,135,6.55,9
261.58,155,4.27,9
212.6,118,10.59,3
141.41,63,17.55,1
252.81,194,11.5,4
322.43,180,11.24,0
189.02,151,5.29,6
206.38,83,10.45,3
147.12,60,15.92,8
166.78,53,11.16,1
135.44,55,16.2,1
150.74,116,9.59,7
159.54,126,10.91,7
298.58,140,7.82,0
333.68,188,8.5,0
126.51,68,12.57,1
273.2,195,5.61,0
245.89,146,6.33,6
141.78,54,19.13,8
143.6,106,10.2,2
236.55,146,8.07,6
242.13,158,6.44,9
254.18,196,10.57,4
158.03,54,15.6,1
160.46,73,19.85,1
312.04,141,10.3,0
295.71,175,7.73,0
156.3,112,12.04,2
179.87,92,14.05,7
154.94,77,11.26,1
276.77,180,9.66,0
222.98,142,7.46,6
220.84,134,11.66,5
155.79,94,8.43,7
155.72,109,11.42,2
149.28,119,9.2,7
225.73,129,11.16,5
186.3,124,5.54,6
156.77,100,15.05,2
241.89,160,5.75,9
255.07,154,6.96,9
267.25,143,14.39,5
136.83,58,12.28,1
255.9,212,7.46,4
285.04,142,6.29,9
280.31,154,6.04,9
141.2,79,17.76,1
147.8,70,11.58,8
202.72,91,11.06,3
255.46,122,14.52,5
224.56,122,7.1,6
257.36,159,7.72,9
263.47,184,6.31,4
168.76,50,12.32,1
128.1,80,11.23,1
150.23,82,15.85,3
293.15,195,6.34,0
235.73,138,4.37,9
272.21,172,6.46,0
243.81,132,9.07,6
200.19,158,9.34,4
282.7,197,9.17,0
145.01,85,17.67,8
164.89,120,9.28,7
151.27,92,15.73,2
203.91,74,11.3,3
257.4,150,9.66,4
141.68,59,18.93,1
227.68,152,9.26,4
211.29,129,7.19,6
273.54,143,4.89,9
147.21,87,19.56,8
222.26,146,10.68,5
217.01,180,7.56,6
208.82,111,15.26,3
144.1,54,10.43,1
237.35,176,9.78,6
174.26,91,10.51,7
144.19,129,14.39,7
203.09,183,7.02,4
195.83,104,10.37,3
117.87,57,16.17,8
139.47,70,13.14,8
147.25,67,18.5,1
126.39,53,11.74,1
276.29,149,6.97,9
165.34,128,13.8,7
155.24,130,14.74,2
241.27,202,6.45,4
205.53,210,5.44,4
100.12,53,15.01,8
306.31,145,5.89,0
203.9,140,7.78,6
147.24,77,17.32,8
293.97,152,4.56,9
142.23,51,11.99,1
180.75,155,8.07,5
329.76,155,6.55,0
158.18,102,14.78,2
171.27,114,8.68,7
151.33,65,10.03,1
218.66,191,8.73,4
158.59,100,14.99,7
251.75,162,3.69,9
132.39,79,16.09,1
263.72,212,8.32,4
278.26,169,8.73,0
234.35,154,6.89,6
225.85,199,9.54,4
296.44,133,5.21,9
166.76,100,12.18,2
164.15,104,13.29,2
129.65,83,11.6,8
328.63,199,6.09,0
204.55,108,8.76,3
191.76,127,7.58,5
289.28,169,6.98,0
140.53,121,17.57,2
259.24,161,7.19,9
190.88,113,13.8,5
143.82,78,10.3,8
155.05,92,12.49,2
241.09,130,5.17,6
175.48,112,14.05,7
227.41,179,11.79,4
157.74,128,14.22,7
229.02,165,8.58,4
219.28,117,9.3,3
299.07,155,8.6,0
112.31,71,19.05,8
144.88,69,17.43,1
140.01,58,11.9,8
258.05,160,5.9,0
167.08,118,8.71,7
204.37,106,9.4,3
255.65,162,7.08,0
146.5,111,16.66,2
164.93,100,10.69,7
135.99,75,15.64,1
171.6,109,16.4,2
212.95,172,5.64,4
147.11,91,11.76,2
160.68,73,18.92,1
171.52,115,11.75,3
145.0,61,18.47,8
136.79,53,14.94,8
173.03,90,9.92,7
298.92,152,9.76,0
149.78,58,13.16,8
172.7,107,17.33,2
160.68,100,11.05,3
154.48,99,15.02,2
135.64,61,18.13,8
126.58,69,17.33,1
183.83,157,9.55,6
198.09,134,8.97,5
243.78,212,7.9,4
134.82,63,18.73,1
214.73,153,11.49,5
142.54,59,17.34,1
118.85,89,19.99,8
271.06,178,9.65,0
212.58,199,5.81,4
143.24,60,10.88,8
267.73,196,9.97,4
169.16,103,12.39,2
279.15,181,10.62,0
162.55,125,16.35,2
143.35,115,13.2,7
229.14,156,5.1,6
134.92,81,15.66,8
113.09,78,17.92,8
245.03,151,6.58,9
156.12,127,12.99,7
175.72,104,16.14,2
314.63,156,9.22,0
116.53,62,18.45,8
273.74,157,7.01,9
284.49,147,9.68,0
240.75,164,4.77,9
217.04,132,7.1,6
270.02,170,5.77,9
247.04,159,7.39,9
183.16,112,13.85,5
125.04,77,19.99,1
122.54,68,17.85,1
204.48,138,14.99,5
289.82,152,6.35,9
164.47,121,11.81,7
141.37,111,9.61,7
152.91,125,11.82,7
163.5,90,13.57,7
157.2,97,8.37,7
229.98,146,10.61,5
167.19,77,8.0,3
235.96,216,10.92,4
171.99,74,8.74,3
199.77,131,12.85,5
179.85,104,13.05,7
183.66,157,6.97,6
146.65,74,15.75,1
298.5,168,4.01,9
257.05,187,8.17,4
231.21,212,9.06,4
132.71,65,18.45,8
248.48,159,15.0,5
268.17,142,8.81,0
144.9,112,14.82,7
239.26,168,4.61,9
210.22,220,8.34,4
319.69,182,8.05,0
231.36,141,5.75,9
159.83,129,12.51,7
162.24,114,13.0,2
168.5,57,17.32,1
248.38,169,5.17,9
255.99,205,9.38,4
165.55,96,10.52,2
297.86,132,4.16,9
177.04,114,15.68,2
170.89,116,12.65,7
163.12,107,12.3,7
189.57,107,8.05,3
280.02,139,4.38,9
226.02,150,9.15,4
210.13,116,15.41,3
258.0,140,11.26,5
154.66,118,9.86,7
150.0,91,10.81,3
207.3,97,9.69,3
239.68,115,9.93,5
262.01,155,7.78,9
274.57,148,5.22,0
269.17,144,3.69,9
184.11,150,6.93,6
211.56,79,8.71,3
147.39,59,18.96,8
159.59,90,11.98,2
125.1,67,10.73,8
175.73,70,11.35,3
197.29,174,9.46,6
298.41,191,5.05,0
183.19,126,13.37,5
137.26,78,19.69,8
169.15,67,14.37,1
267.98,142,13.76,5
263.04,144,10.73,5
301.99,200,10.22,0
142.82,122,15.84,2
181.33,179,6.54,6
261.35,151,8.3,0
201.26,120,9.48,5
155.61,72,14.92,1
195.57,152,13.58,5
187.16,104,9.21,3
135.02,57,11.94,1
185.9,119,14.16,3
203.56,212,11.05,4
237.69,164,5.53,6
173.23,119,14.09,3
114.8,74,12.24,8
276.88,132,6.79,9
145.63,91,17.28,2
210.43,75,10.47,3
231.6,157,3.36,9
158.1,100,12.58,2
248.46,184,6.53,4
203.94,132,7.39,5
280.98,169,9.14,0
121.2,51,13.33,8
240.56,176,9.48,6
166.3,94,9.77,7
287.37,191,6.66,0
127.12,73,12.93,8
163.82,70,9.78,3
249.49,177,6.35,6
103.78,51,15.51,8
147.55,112,12.24,7
215.04,181,6.33,4
149.68,100,12.39,7
132.43,84,10.91,8
286.73,168,11.58,0
135.32,68,17.79,1
175.24,103,10.14,7
143.71,55,14.63,1
265.39,133,3.41,9
147.81,74,15.3,1
147.93,122,9.96,7
187.61,70,8.69,3
247.88,117,7.0,5
135.29,52,19.03,1
201.62,121,11.88,5
160.34,116,11.86,2
160.62,104,16.21,2
242.22,151,10.48,4
212.5,199,5.95,4
107.89,73,11.08,8
189.73,150,14.96,5
168.98,96,13.13,3
223.17,165,7.0,6
102.44,68,11.2,8
116.48,62,10.63,8
297.25,134,5.11,9
172.51,104,14.18,7
160.57,96,11.13,7
133.14,66,16.87,1
288.72,170,10.19,0
248.1,117,11.64,5
293.96,151,4.58,9
184.18,71,13.72,3
162.38,58,13.98,1
200.48,147,8.27,6
270.94,181,9.42,0
266.44,117,10.29,5
185.28,99,15.88,3
241.64,178,5.8,6
153.99,61,12.38,1
178.49,109,11.7,2
195.03,117,9.86,3
157.88,123,11.25,7
171.74,103,9.02,7
197.17,117,8.41,5
147.46,82,12.25,8
304.16,148,8.71,0
179.48,98,10.97,7
152.73,92,12.09,7
143.78,124,13.73,7
178.07,114,10.17,7
210.72,151,8.42,5
268.64,194,6.24,0
138.58,56,11.35,8
181.49,165,6.0,6
170.92,118,10.93,2
239.83,156,6.53,4
208.23,208,8.54,4
119.08,63,14.79,8
203.91,195,11.31,4
195.93,107,12.14,3
148.87,117,11.86,7
232.56,150,13.16,5
310.35,142,9.52,0
248.67,179,5.57,6
221.41,158,14.33,5
255.22,139,4.17,9
108.92,53,11.68,8
164.34,111,11.68,7
163.31,93,10.56,7
154.02,112,9.45,7
291.89,166,4.68,9
110.99,78,11.36,8
195.48,121,6.76,6
152.68,79,9.08,3
144.38,51,17.76,1
177.75,113,11.36,7
152.79,78,19.15,1
191.37,162,5.42,6
181.38,112,13.38,3
163.28,59,19.29,1
299.71,185,6.22,0
251.32,166,9.03,4
239.05,156,7.5,5
254.65,160,10.1,0
140.88,85,19.79,8
210.27,152,7.94,5
173.87,129,10.42,7
269.28,153,10.36,5
142.98,78,13.25,1
151.7,102,12.36,7
321.7,149,7.88,0
158.0,57,12.04,1
221.74,132,7.41,6
159.3,81,8.45,3
233.42,168,6.42,9
164.8,112,9.87,7
218.0,124,9.74,6
217.48,89,15.73,3
259.24,199,7.39,0
202.81,204,7.17,4
269.4,159,7.19,9
119.3,70,18.1,8
146.33,78,12.1,8
259.05,162,5.63,9
151.81,71,8.99,3
128.87,61,12.69,8
102.93,58,12.55,8
310.45,193,9.92,0
154.56,98,12.58,2
147.44,126,12.16,2
146.84,56,14.25,1
133.15,79,10.74,1
150.26,79,18.3,1
319.0,178,5.24,0
100.07,72,13.52,8
238.46,208,8.94,4
167.17,99,12.74,7
182.47,122,9.0,6
135.06,66,14.77,1
267.21,194,5.25,0
276.6,159,5.84,9
140.38,88,19.86,8
274.96,132,6.71,9
160.63,117,11.96,7
152.22,56,14.36,1
286.49,134,5.81,9
310.68,162,9.48,0
214.36,155,6.13,6
342.48,148,8.0,0
165.32,64,16.75,1
147.57,72,13.85,1
317.7,178,6.58,0
328.47,158,11.32,0
269.72,144,8.47,5
252.9,141,8.81,0
182.11,153,7.49,5
266.14,213,8.75,4
167.0,70,12.14,1
147.69,120,14.31,2
183.93,176,8.76,6
240.01,142,8.3,5
223.36,126,9.9,6
160.65,106,11.4,7
140.2,71,19.11,1
146.86,72,11.92,8
144.11,87,13.0,8
153.05,93,12.25,2
137.13,66,18.63,1
155.71,69,13.45,1
228.03,193,8.21,4
284.47,140,5.48,9
213.28,159,7.57,6
181.68,129,5.28,6
151.23,75,15.22,1
262.39,135,3.03,9
170.25,111,12.36,2
157.24,58,13.02,1
319.17,190,9.3,0
211.07,75,9.83,3
121.42,60,14.9,8
218.93,109,15.78,3
161.47,90,10.34,7
199.13,137,9.97,6
168.99,108,11.87,7
256.61,129,8.32,5
228.66,130,9.03,5
192.77,121,8.67,6
208.58,84,11.65,3
173.8,102,15.94,3
249.06,135,5.44,6
287.49,182,7.26,0
312.75,147,5.27,0
149.92,57,16.35,8
220.25,137,12.17,5
109.92,54,15.24,8
278.97,131,7.31,9
191.41,114,10.99,5
219.81,118,14.54,3
151.12,103,11.13,2
142.59,98,10.25,2
249.8,170,8.45,6
241.68,147,3.5,9
293.31,195,10.23,0
151.29,101,14.11,7
256.36,153,6.57,0
211.06,170,6.49,6
143.04,63,10.86,1
166.12,68,18.17,1
167.02,77,16.23,1
183.43,93,12.27,3
150.1,103,11.52,3
179.83,94,10.35,3
254.19,136,3.33,9
155.78,95,10.8,7
145.14,128,10.56,7
231.85,133,7.54,6
304.09,175,6.89,0
193.26,107,11.78,3
121.28,73,11.42,8
198.7,146,6.17,6
243.54,174,5.89,4
115.55,87,16.74,8
177.53,106,13.9,2
205.04,92,8.07,3
133.43,58,12.41,1
214.37,171,9.53,4
153.72,83,9.59,3
143.34,80,10.89,1
239.47,212,5.27,4
250.38,128,9.23,5
191.1,160,13.27,5
139.82,51,10.29,8
231.8,152,5.9,9
251.71,147,10.42,0
259.72,148,11.41,0
142.26,58,11.98,1
157.85,119,12.97,2
219.47,113,8.01,5
163.54,114,12.82,2
171.89,121,13.12,7
304.38,184,7.41,0
145.15,82,17.47,8
145.59,106,11.67,7
241.79,158,11.59,5
161.85,51,13.42,1
273.64,195,9.02,0
137.0,54,17.66,1
275.62,183,7.98,0
100.41,58,13.31,8
170.08,119,11.36,7
171.2,72,8.08,3
269.17,137,6.18,9
262.54,133,6.15,9
219.61,152,12.02,5
175.59,97,15.9,3
240.69,155,10.25,4
221.05,169,5.65,6
273.38,155,10.82,0
159.2,114,8.17,3
172.71,93,13.45,2
236.64,138,3.91,9
246.47,160,14.09,5
237.32,142,7.81,9
189.88,164,9.48,6
204.36,160,6.12,4
127.7,61,11.57,8
194.94,118,13.04,5
164.24,105,10.55,7
261.52,126,14.24,5
236.29,153,7.05,9
170.43,94,12.39,7
209.13,71,13.87,3
234.46,198,6.76,4
169.77,116,10.74,7
138.45,83,17.19,8
252.42,186,11.15,0
253.2,141,8.97,0
245.21,112,10.84,5
202.79,156,10.51,5
209.7,96,12.82,3
221.65,208,11.7,4
169.31,88,12.71,3
128.71,57,17.24,1
147.05,51,15.31,8
134.55,68,17.49,8
285.51,179,5.65,0
106.02,76,14.04,8
275.43,136,3.37,9
180.03,133,7.79,6
139.84,50,19.19,1
160.98,119,16.96,2
281.65,146,4.0,9
259.69,144,7.6,0
167.15,124,11.0,2
245.24,183,5.95,4
267.35,146,7.4,9
130.91,67,15.39,8
215.87,81,13.32,3
154.36,74,12.79,1
244.4,139,7.76,9
172.61,113,12.23,3
206.58,130,7.66,6
143.61,113,8.99,7
282.03,180,11.31,0
168.38,125,14.01,7
133.95,87,14.86,8
140.26,65,11.62,1
229.0,197,8.32,4
204.29,117,13.69,5
179.31,112,17.31,2
233.43,213,10.35,4
142.64,123,12.69,2
125.28,67,10.86,1
137.51,77,18.54,8
256.52,134,3.55,9
150.53,71,17.77,1
177.22,107,8.08,7
251.94,144,7.9,9
174.63,97,11.36,2
163.43,124,12.17,2
160.02,94,8.94,7
140.27,115,11.63,7
168.21,94,15.6,3
197.82,136,5.85,6
202.29,98,11.42,3
152.02,78,14.66,3
153.43,113,11.78,3
151.92,93,11.03,7
216.23,72,8.31,3
256.14,170,3.65,9
217.17,138,8.69,5
253.12,146,6.69,9
247.44,135,7.22,6
266.83,159,9.05,0
182.41,124,14.31,5
147.56,72,12.0,1
247.55,214,8.46,4
119.14,61,14.01,8
165.25,125,13.65,2
124.37,71,12.66,8
292.02,166,4.31,9
201.01,155,10.48,5
156.61,112,12.21,7
153.93,120,12.4,7
236.09,163,9.31,4
146.63,96,11.03,7
142.01,75,18.83,1
230.49,141,6.64,9
235.36,163,3.85,9
139.12,88,19.68,8
130.67,89,16.94,8
189.67,124,11.53,5
342.3,194,5.26,0
163.91,127,15.75,2
266.9,211,6.82,4
256.3,177,11.98,4
229.64,172,5.34,6
116.55,81,10.69,8
245.24,167,9.0,6
213.07,164,5.69,6
242.09,154,5.11,9
154.38,100,9.8,7
250.73,159,4.37,9
153.06,82,10.39,3
123.86,72,18.72,1
247.01,162,9.37,6
348.44,140,5.33,0
185.8,132,7.77,6
127.24,81,15.43,8
204.65,176,11.61,4
144.21,60,16.32,1
130.62,66,19.84,1
241.97,142,6.77,9
152.52,97,14.59,7
223.19,205,9.33,4
155.38,93,12.29,7
138.01,73,12.8,8
202.21,89,12.08,3
218.14,140,8.27,6
160.53,99,11.24,7
344.87,143,8.09,0
208.15,154,14.43,5
148.36,130,14.59,2
210.23,161,9.87,6
215.57,220,8.28,4
161.34,101,15.96,2
121.34,72,14.52,8
230.34,133,6.09,6
146.15,108,13.35,7
158.68,105,10.16,7
277.24,150,3.01,9
179.0,101,10.35,7
180.65,157,5.68,6
269.57,154,7.87,0
183.78,94,15.59,3
154.98,129,11.72,2
167.63,118,12.83,7
163.92,112,8.54,7
153.99,113,14.55,3
275.04,178,7.79,0
157.41,99,10.09,2
198.06,89,12.69,3
151.69,108,10.94,2
225.14,131,7.84,6
100.77,69,14.84,8
187.84,126,7.47,6
106.17,90,11.27,8
349.18,159,7.24,0
159.03,51,15.91,1
108.99,88,13.22,8
291.4,164,7.05,0
239.67,143,6.35,9
169.0,99,8.35,7
329.08,187,5.03,0
175.84,97,10.77,7
155.18,91,14.61,2
272.53,168,5.46,9
231.05,138,10.42,5
279.22,150,10.9,0
239.27,130,12.85,5
211.92,143,14.66,5
184.44,160,8.53,6
260.84,143,4.51,9
264.5,161,5.64,9
235.02,173,7.31,6
187.72,175,8.55,6
141.41,63,18.67,1
335.21,152,9.87,0
232.55,152,9.03,4
171.98,119,9.76,7
260.21,168,8.03,0
168.4,73,15.17,3
149.78,92,14.02,2
313.03,141,8.28,0
241.19,116,8.43,5
273.24,143,3.05,9
280.24,162,4.48,9
145.08,59,16.18,1
242.03,138,9.24,6
200.48,108,11.99,3
188.18,103,9.47,3
290.84,142,9.47,0
172.96,114,16.31,2
251.43,125,8.19,5
254.59,180,8.94,4
267.23,169,7.74,0
135.54,51,18.94,8
142.87,100,10.58,2
155.47,66,14.6,1
151.95,125,17.75,2
244.02,171,8.3,6
258.52,176,9.55,4
243.71,163,3.46,9
194.92,111,8.73,5
170.2,112,8.48,7
148.1,68,18.9,8
201.72,146,9.5,6
193.96,169,6.21,6
302.25,156,7.54,0
159.26,65,15.48,1
120.43,89,13.5,8
234.87,174,9.55,6
159.93,51,17.65,1
170.25,113,10.44,7
236.4,128,14.76,5
247.99,146,13.35,5
313.65,200,10.8,0
163.98,91,12.97,7
285.4,159,7.0,0
213.71,188,9.26,4
286.86,148,6.67,0
301.4,183,9.05,0
255.6,180,10.04,0
231.77,157,7.45,4
275.07,191,9.12,0
135.76,76,11.83,1
263.05,127,7.32,5
213.39,147,5.65,6
207.43,133,14.93,5
183.68,121,6.83,6
100.96,84,16.62,8
272.16,169,3.82,9
325.48,190,9.49,0
265.45,152,12.41,5
231.44,143,14.79,5
277.8,150,7.26,0
264.56,202,9.89,4
215.6,123,5.15,6
100.84,73,15.67,8
224.43,155,6.97,6
214.65,145,7.52,6
247.3,121,14.24,5
320.16,177,9.85,0
193.38,105,9.75,3
117.53,83,16.48,8
298.62,151,5.58,0
176.03,73,9.94,3
162.2,123,16.67,2
332.03,144,10.24,0
274.78,139,6.17,9
231.56,175,5.88,6
185.99,83,15.14,3
127.37,86,18.58,8
141.82,99,13.57,7
160.92,65,13.33,1
273.48,158,5.04,9
170.09,111,11.73,2
265.52,166,3.63,9
215.78,164,8.24,6
213.59,99,9.09,3
227.49,179,9.02,4
249.55,149,13.89,5
235.42,149,7.26,9
205.64,91,12.5,3
189.42,159,8.0,6
195.57,116,13.18,5
173.55,90,11.51,3
210.88,204,11.0,4
323.85,197,7.27,0
198.34,116,12.38,3
189.33,155,10.85,5
341.02,188,6.82,0
140.03,82,17.26,8
176.46,102,8.11,7
251.55,216,10.22,4
132.39,60,14.25,1
237.95,132,6.48,9
149.52,96,14.98,2
257.32,143,7.86,5
175.76,100,13.45,3
178.82,114,12.9,3
190.55,141,6.17,6
102.39,81,15.47,8
277.63,159,7.35,9
263.33,193,9.5,4
276.72,132,4.19,9
169.51,107,10.3,2
137.4,54,19.43,1
187.63,138,14.4,5
344.59,191,11.04,0
196.9,102,9.82,3
148.42,104,16.2,2
142.61,64,18.5,1
261.02,130,14.49,5
224.76,133,5.18,6
186.92,78,13.42,3
201.42,151,7.18,6
223.16,180,8.68,6
259.83,219,6.21,4
269.11,181,10.9,0
161.63,113,9.56,3
172.96,104,13.39,2
225.62,156,7.41,6
126.18,70,14.24,1
136.87,52,16.74,8
129.63,64,19.51,1
348.83,153,6.86,0
168.24,120,13.87,7
262.55,215,7.08,4
268.45,162,8.21,4
273.7,149,6.7,0
130.86,78,15.82,8
143.02,56,14.17,1
190.56,157,9.65,5
288.31,142,11.01,0
184.34,160,7.54,6
303.46,148,7.5,0
217.68,211,11.01,4
250.65,185,5.12,4
177.72,100,10.75,2
191.54,124,6.28,6
179.86,95,9.05,7
124.43,84,12.31,8
168.86,69,19.77,1
159.82,66,17.19,1
126.23,82,15.8,8
183.63,153,14.24,5
123.45,81,11.39,8
232.26,152,5.69,4
136.12,53,10.24,8
124.4,56,12.13,8
202.53,85,11.93,3
299.73,130,6.19,9
239.4,130,14.13,5
219.22,149,7.32,5
287.29,153,5.69,9
159.39,92,11.19,7
183.14,176,7.24,6
153.26,89,9.52,3
179.15,122,13.38,7
140.17,119,10.21,7
238.5,165,4.6,9
151.03,51,11.65,1
205.15,88,8.72,3
106.75,73,11.82,8
122.59,61,15.92,8
204.99,204,6.85,4
113.63,78,16.67,8
180.9,156,8.86,6
200.97,108,13.43,3
172.9,114,12.03,2
297.2,161,6.62,0
110.51,64,12.96,8
184.51,176,7.54,6
179.81,118,13.08,2
205.45,146,5.49,6
222.18,155,6.96,6
174.3,98,15.86,3
179.11,130,14.29,2
252.7,157,5.53,4
129.07,77,11.58,8
210.58,172,8.27,4
225.88,149,7.01,5
249.32,187,5.97,4
153.46,102,15.66,2
151.62,105,8.55,3
263.04,153,7.6,5
211.47,129,9.91,6
251.3,147,6.85,0
157.11,114,11.1,2
157.16,106,14.58,7
116.02,65,16.89,8
155.86,111,8.38,3
122.9,80,15.79,1
234.7,175,7.62,4
193.18,144,12.91,5
165.06,71,19.21,1
153.08,62,18.16,1
147.45,66,15.04,1
150.06,96,12.74,2
216.69,210,8.48,4
267.04,150,13.72,5
205.07,165,5.74,4
153.35,114,9.57,7
171.69,80,12.36,3
219.67,178,7.88,6
134.38,64,13.46,1
194.84,78,10.5,3
239.4,124,12.4,5
266.42,161,3.84,9
191.54,79,8.99,3
235.48,151,9.23,6
186.44,160,6.6,6
161.26,54,17.62,1
196.82,141,5.32,6
260.14,200,10.71,4
194.77,86,13.04,3
280.26,176,7.78,0
309.59,199,5.0,0
205.91,117,7.39,5
168.53,100,14.46,7
207.59,92,12.03,3
126.86,88,17.32,8
248.93,175,8.37,6
166.86,126,12.11,7
141.04,58,12.24,1
242.65,180,5.14,4
221.61,117,8.95,5
277.88,156,4.07,9
216.17,152,14.28,5
231.62,169,7.6,9
260.07,162,8.55,4
177.19,119,12.55,2
204.23,122,7.08,6
268.44,195,9.35,0
271.13,166,7.7,9
331.41,186,5.03,0
221.21,157,14.56,5
122.48,54,11.18,8
246.41,164,5.57,9
160.47,110,9.01,7
143.11,67,13.07,8
278.34,200,10.06,0
181.01,133,12.02,5
163.63,99,13.08,2
196.77,157,8.94,6
166.47,116,15.58,2
166.5,105,9.95,7
238.23,191,10.18,4
226.21,150,10.96,4
140.56,70,18.85,1
140.63,113,14.72,2
164.5,127,17.31,2
162.82,57,17.0,1
150.29,101,14.01,2
192.92,98,12.79,3
245.71,170,8.72,6
179.31,94,8.22,7
147.65,94,15.63,2
268.64,164,3.0,9
100.79,82,19.98,8
298.06,173,10.25,0
158.27,130,11.45,2
211.59,170,8.81,4
202.54,152,11.53,4
298.73,185,5.06,0
147.71,105,16.23,2
249.87,124,5.12,6
186.31,141,10.44,5
165.17,102,11.51,2
174.15,77,8.86,3
249.11,114,9.48,5
169.04,107,10.11,2
148.14,126,13.46,2
156.56,97,10.41,2
241.04,168,9.95,6
286.81,144,3.06,9
221.89,161,9.93,4
187.54,145,9.46,5
155.53,115,14.34,2
247.53,163,7.15,9
156.02,107,11.93,3
250.47,165,7.74,4
199.52,178,8.2,6
247.36,194,11.35,4
158.49,115,14.06,7
263.23,124,14.59,5
212.37,130,9.25,6
275.28,152,7.05,0
233.84,180,7.4,6
192.6,133,10.17,5
188.88,137,7.1,5
170.63,124,9.13,7
255.89,157,6.64,4
347.31,164,11.99,0
212.34,90,8.25,3
222.39,215,9.59,4
207.49,156,11.74,4
164.61,98,14.7,7
175.19,99,13.3,7
108.36,58,19.77,8
125.46,59,19.05,1
122.9,65,18.89,1
219.53,134,8.26,6
187.34,88,11.84,3
219.85,159,8.68,6
287.24,144,4.78,9
125.71,73,18.98,1
225.96,135,12.25,5
228.8,185,9.37,4
152.27,104,11.16,2
313.87,189,9.67,0
141.97,100,13.7,2
145.1,69,18.79,1
136.2,61,14.16,1
102.39,64,10.86,8
196.27,172,5.32,6
134.88,68,16.41,8
149.83,130,12.81,7
210.48,81,8.9,3
332.92,160,11.44,0
213.54,141,7.65,6
167.72,60,11.7,1
175.87,90,10.25,2
216.3,130,9.21,6
165.46,120,12.89,2
174.44,79,12.84,3
238.77,145,12.97,5
164.43,126,8.54,7
255.45,171,8.36,4
206.98,72,10.49,3
166.03,129,10.46,7
141.85,113,9.97,7
210.67,213,6.94,4
160.36,105,12.86,2
265.98,134,8.5,5
267.02,217,5.87,4
341.23,150,11.62,0
269.68,149,4.2,9
169.74,96,13.29,7
153.41,117,10.77,2
263.05,130,8.02,5
250.13,136,4.68,9
208.17,72,14.4,3
139.56,57,11.75,1
157.03,99,8.6,3
194.34,141,5.29,6
144.34,129,11.72,2
211.25,131,14.36,5
153.73,112,10.52,7
208.36,139,8.66,5
254.3,205,10.35,4
189.92,106,13.18,3
285.95,156,5.0,9
136.67,57,17.12,1
248.3,121,14.72,5
343.05,182,8.75,0
180.27,116,11.55,5
107.49,57,13.81,8
163.0,124,11.68,7
268.55,140,8.84,5
283.85,181,11.09,0
208.17,165,8.65,6
186.09,98,10.05,3
126.98,73,13.63,8
160.07,76,18.71,1
119.7,83,18.36,8
280.59,194,7.72,0
185.89,107,11.69,3
150.44,126,15.64,2
157.78,94,13.66,2
239.78,140,5.51,6
228.28,220,9.11,4
129.16,87,12.73,8
140.57,100,14.69,2
148.95,116,8.54,7
145.59,96,16.74,2
294.02,142,5.97,9
213.52,88,12.46,3
215.68,195,10.15,4
160.32,79,19.96,1
219.55,200,5.3,4
172.66,118,16.37,2
171.85,105,8.87,7
245.56,142,7.16,5
148.32,93,13.47,2
203.96,163,7.15,4
150.3,110,16.74,2
127.25,71,16.23,8
258.29,153,9.91,0
235.14,127,7.19,6
121.26,50,14.9,8
266.78,116,12.0,5
235.0,186,10.94,4
158.14,107,17.69,2
207.99,195,8.51,4
262.82,195,6.35,0
134.11,68,14.5,1
230.88,158,14.15,5
135.24,57,19.31,8
274.16,158,4.08,9
185.45,120,7.27,6
144.39,73,18.33,8
169.71,66,13.6,1
223.68,193,8.14,4
318.2,145,6.04,0
151.34,102,16.81,2
273.52,144,7.5,9
136.62,75,19.54,1
158.32,128,12.46,2
230.91,140,4.07,9
263.77,178,7.35,0
284.25,196,5.91,0
217.9,190,5.78,4
255.28,148,10.65,0
176.61,93,11.33,2
240.28,113,9.99,5
146.72,98,16.01,2
214.67,160,8.69,5
180.24,116,12.11,5
254.24,136,11.65,5
202.61,118,10.92,5
236.63,153,4.98,9
213.28,117,7.32,5
142.09,124,11.94,2
138.11,64,11.79,1
247.1,145,5.07,6
248.0,131,14.17,5
257.64,163,9.83,0
216.79,123,6.17,6
325.82,189,5.86,0
173.38,95,9.64,7
113.17,77,14.24,8
263.36,173,8.96,4
102.17,79,13.77,8
153.26,110,10.6,2
120.66,84,11.55,8
252.09,129,8.17,5
257.92,193,5.61,0
218.35,149,12.99,5
312.58,192,5.16,0
239.34,190,11.07,4
133.53,60,10.63,8
123.05,71,16.95,8
124.77,75,10.21,8
181.0,118,14.11,3
166.64,52,14.91,1
187.96,139,9.43,6
265.85,160,7.78,5
194.04,140,9.83,6
210.4,174,9.43,6
144.45,73,12.86,8
140.85,59,12.01,8
150.33,60,17.38,1
255.86,136,6.66,9
196.95,145,8.52,5
169.63,81,15.0,3
182.85,159,7.21,5
148.05,125,10.12,7
156.72,94,14.0,2
249.45,147,12.21,5
289.92,144,6.06,9
203.09,160,7.84,6
307.19,182,7.11,0
119.88,75,12.17,8
236.2,140,6.25,6
112.47,54,10.58,8
155.97,71,14.8,1
244.38,124,13.42,5
207.53,160,14.13,5
137.74,84,16.3,8
230.64,159,5.55,9
166.02,70,9.61,3
179.9,116,11.23,2
121.38,72,16.72,1
135.17,59,14.49,1
272.97,180,7.98,0
247.88,174,8.95,6
256.93,119,10.74,5
289.52,158,8.16,0
219.01,158,10.41,4
175.27,100,11.41,2
181.03,80,9.28,3
164.64,55,20.0,1
103.76,58,18.34,8
225.57,201,9.05,4
194.86,90,8.76,3
304.35,144,5.66,0
182.2,134,9.74,5
156.7,122,12.04,2
121.06,52,14.87,8
148.33,120,12.26,2
144.1,78,12.06,1
123.05,82,15.97,8
181.42,114,10.22,3
144.24,122,15.21,2
129.44,64,16.69,8
219.76,159,7.51,5
156.99,115,11.67,2
168.87,103,15.39,2
312.61,160,8.5,0
167.32,124,10.59,7
211.85,113,7.45,5
232.09,169,4.98,9
172.78,99,10.26,2
154.68,108,15.31,2
266.7,166,5.27,0
167.16,92,14.7,2
171.54,123,10.71,7
124.7,75,15.14,1
229.62,114,7.66,5
237.32,145,13.26,5
146.43,66,15.32,1
134.62,74,17.05,8
108.1,59,14.98,8
192.16,138,8.06,6
248.59,205,9.67,4
239.79,146,3.25,9
101.99,74,18.87,8
185.46,160,8.7,6
187.34,157,9.48,6
318.04,182,11.18,0
137.3,64,13.02,8
158.88,120,17.64,2
157.74,57,11.66,1
228.29,208,9.64,4
150.87,113,10.69,7
165.39,116,10.08,2
142.22,92,12.48,2
168.4,126,17.85,2
132.36,51,18.28,8
179.65,108,11.72,7
128.97,63,13.81,1
269.89,198,6.91,4
232.31,164,8.89,4
133.08,73,11.43,8
183.18,103,15.21,3
166.74,96,17.53,2
151.68,114,12.35,7
138.66,56,12.43,1
214.08,71,12.31,3
196.33,77,8.74,3
108.43,54,12.89,8
170.29,125,16.42,2
169.56,91,12.51,7
206.57,128,5.52,6
215.45,158,12.08,5
158.81,114,8.65,3
171.8,98,12.68,2
260.6,119,8.07,5
227.82,177,6.17,4
167.08,98,17.76,2
218.32,155,6.94,6
102.52,65,18.51,8
326.11,188,6.33,0
130.33,61,10.38,1
230.76,129,8.87,6
267.48,128,13.86,5
125.41,64,12.77,1
119.11,53,13.35,8
271.21,159,5.95,0
142.13,66,10.5,1
155.75,118,14.2,2
173.76,85,9.45,3
224.07,176,8.71,4
267.51,184,10.01,0
192.3,152,8.33,6
245.12,156,5.97,9
177.0,101,16.92,2
204.54,96,13.99,3
325.37,197,8.06,0
159.2,94,15.78,3
337.03,191,6.63,0
286.55,149,7.47,9
213.15,164,9.6,4
311.33,161,10.15,0
195.58,98,8.39,3
225.87,134,7.25,5
182.59,180,5.8,6
229.19,168,7.69,6
165.92,73,16.06,1
129.98,88,13.13,8
286.19,131,7.24,9
187.15,95,15.23,3
175.96,117,11.17,7
206.33,173,8.08,4
126.2,76,18.07,1
168.67,110,13.85,3
135.07,81,15.91,8
118.05,86,19.04,8
269.22,158,11.62,5
153.82,91,10.79,2
334.46,168,7.0,0
157.87,96,13.24,7
111.98,80,19.52,8
142.53,52,16.68,1
262.8,170,6.96,9
207.19,103,14.03,3
232.31,132,7.27,9
194.51,175,9.57,6
130.01,57,10.25,1
145.48,51,11.43,1
158.35,59,18.95,1
154.95,73,18.68,1
154.33,83,9.43,3
241.91,166,11.37,4
246.38,127,11.88,5
107.81,59,16.61,8
231.72,178,6.96,6
212.61,124,10.92,5
162.33,117,14.69,2
329.51,173,6.94,0
168.36,124,11.59,2
302.64,151,9.79,0
151.51,110,11.6,7
162.74,71,10.45,1
308.18,156,5.34,0
234.28,133,9.07,6
203.18,160,11.77,4
107.89,57,19.14,8
179.89,113,13.63,7
169.86,118,14.86,2
109.13,83,12.79,8
259.89,200,6.65,0
144.78,101,12.26,2
262.1,176,7.4,4
156.97,91,17.2,2
155.64,118,10.44,7
168.01,116,10.47,2
148.15,92,14.93,2
234.31,158,3.92,9
127.32,76,17.2,8
214.65,149,8.12,5
125.91,74,19.29,1
280.67,150,7.36,9
263.51,161,5.53,0
270.56,148,4.52,9
173.73,100,10.28,7
159.76,101,16.78,2
173.57,128,13.65,2
275.01,146,7.1,9
153.08,74,10.9,1
240.79,173,6.34,6
257.68,161,6.72,0
239.27,168,5.11,9
234.42,134,13.4,5
328.71,168,8.33,0
110.73,81,17.74,8
146.32,120,12.37,7
150.87,100,10.28,7
167.06,101,12.42,7
100.82,70,11.17,8
131.28,63,17.28,8
118.83,83,15.27,8
266.44,143,7.06,5
163.35,105,11.91,7
294.73,159,3.47,9
266.56,168,11.92,0
219.81,112,13.88,3
104.84,58,17.6,8
167.71,106,10.83,3
168.69,104,8.53,3
157.94,114,14.08,3
191.48,82,15.63,3
248.02,152,3.43,9
262.67,157,5.17,4
263.37,179,6.82,4
118.0,90,17.0,8
168.67,90,13.22,3
259.62,153,7.21,4
204.27,162,7.56,6
191.06,84,12.19,3
216.03,160,6.81,6
159.47,58,10.38,1
159.41,56,14.62,1
244.94,168,6.5,9
215.26,153,12.6,5
188.27,111,11.53,5
218.03,144,9.96,5
164.14,90,8.79,3
130.97,71,10.84,1
168.83,97,13.25,7
217.12,148,6.5,6
211.71,154,9.55,6
294.82,161,3.81,9
200.8,141,9.96,6
283.29,173,11.69,0
243.48,148,9.93,5
200.97,109,10.56,3
249.77,165,8.47,4
131.21,74,13.53,8
282.52,147,7.16,9
211.86,114,13.09,5
262.38,213,11.62,4
120.49,52,13.41,1
216.47,211,7.32,4
158.6,81,9.37,3
268.58,137,3.4,9
185.01,128,7.79,5
250.83,167,9.03,0
273.52,178,5.75,0
316.21,200,7.08,0
268.24,115,14.17,5
138.71,50,17.69,8
162.18,95,9.18,7
243.14,131,7.35,9
244.17,166,7.15,6
132.68,54,16.79,8
200.48,136,7.43,5
124.87,79,19.35,1
125.71,88,13.6,8
190.39,142,11.77,5
314.09,144,6.78,0
296.38,139,7.91,9
274.67,198,10.73,0
268.88,169,5.16,4
153.13,97,17.01,2
167.92,121,12.21,7
179.33,117,16.37,2
212.24,190,5.42,4
110.03,82,18.4,8
107.17,82,11.79,8
128.15,62,10.42,8
168.73,115,16.08,2
268.57,137,13.55,5
119.43,80,12.29,8
163.17,119,13.49,2
254.99,156,9.59,5
260.26,191,9.26,0
166.12,98,14.02,3
256.31,119,8.8,5
173.85,119,9.27,3
255.27,131,10.93,5
169.13,89,8.71,3
160.75,94,14.2,2
103.97,52,10.68,8
282.48,170,6.79,9
145.71,71,11.16,1
149.84,84,12.26,8
202.47,189,10.98,4
160.36,109,17.1,2
149.48,59,17.44,8
261.03,193,8.47,4
180.25,148,7.75,6
146.18,105,10.11,7
158.21,94,16.97,2
291.55,146,7.26,9
280.24,138,6.95,9
171.75,128,15.19,2
151.9,58,14.6,1
167.0,65,11.05,1
211.59,120,10.07,3
106.62,56,18.05,8
195.65,145,8.85,5
275.32,166,3.84,9
134.16,59,17.98,1
258.96,137,7.85,5
149.79,70,18.07,1
161.39,94,15.28,2
258.55,204,10.19,4
271.45,164,7.93,9
348.09,188,10.51,0
125.4,57,17.11,1
164.1,129,9.53,7
141.33,125,11.16,7
220.34,144,7.63,6
300.86,189,9.08,0
142.2,58,16.3,8
214.94,113,11.72,5
286.97,163,10.99,0
293.04,185,6.12,0
141.1,52,13.26,8
227.26,135,12.54,5
256.66,150,6.03,9
243.54,138,7.81,5
274.47,163,5.51,9
313.18,177,8.06,0
244.06,155,6.79,9
156.04,92,12.34,2
217.49,180,6.15,6
141.62,125,14.62,7
179.97,118,15.74,3
131.19,58,15.12,8
143.07,72,10.1,1
202.92,131,13.52,5
181.51,103,9.09,3
161.43,103,15.93,3
319.15,159,10.36,0
171.66,121,17.2,2
254.14,162,5.95,9
199.66,113,8.71,5
257.42,134,7.45,9
144.43,64,17.7,8
156.93,120,14.86,3
238.55,150,10.23,5
206.42,131,7.12,6
149.47,104,10.27,7
286.34,136,5.19,9
270.93,161,6.84,0
163.4,94,17.69,2
348.69,193,11.04,0
181.91,102,11.27,3
138.87,65,13.89,1
167.25,87,14.5,3
141.13,75,19.39,8
174.43,118,13.35,7
198.18,112,13.32,5
127.2,72,16.05,8
230.37,207,10.67,4
292.6,170,6.24,9
181.58,128,9.55,5
274.11,155,5.13,9
176.1,128,17.4,2
242.54,164,9.86,4
234.42,154,5.9,6
259.43,173,11.82,0
156.67,93,15.82,2
230.23,152,12.15,5
143.99,125,13.48,7
180.7,74,8.08,3
149.0,62,10.99,8
243.01,158,6.07,9
147.78,122,17.06,2
121.24,59,14.76,1
207.06,131,7.02,6
142.01,127,15.14,2
199.14,113,15.62,3
167.96,66,16.64,1
262.17,149,12.18,5
142.8,101,15.9,2
161.58,109,14.47,3
245.19,160,7.44,4
176.58,97,11.02,3
158.83,83,10.65,3
154.87,114,11.7,3
122.84,82,18.2,8
137.69,64,13.63,1
229.1,158,11.8,5
291.12,158,3.73,9
170.29,103,10.27,2
188.25,167,9.21,6
264.37,146,7.76,9
127.36,74,18.2,1
121.82,74,10.26,1
323.85,176,9.66,0
199.47,121,5.12,6
241.29,204,7.69,4
248.24,145,5.0,6
251.32,155,5.59,9
147.2,57,14.77,1
118.47,82,19.78,8
168.4,78,8.07,3
183.86,128,8.13,6
249.21,136,6.54,9
158.98,106,17.36,2
167.9,124,10.67,7
206.56,144,6.14,6
149.91,73,14.19,1
198.62,126,5.28,6
149.03,53,11.76,1
239.44,215,6.39,4
321.34,177,11.31,0
191.46,159,10.61,5
144.04,73,10.66,8
232.9,190,9.16,4
263.24,165,11.38,4
247.16,154,6.47,6
166.56,75,14.98,1
321.67,171,6.61,0
256.53,152,4.93,9
264.63,160,9.33,5
278.42,184,10.68,0
243.68,179,5.34,6
161.07,115,12.44,7
138.04,57,13.72,1
213.43,172,7.71,6
151.56,106,10.1,2
153.12,75,12.32,3
216.09,182,6.5,4
260.21,154,7.42,4
261.91,139,11.23,5
121.3,57,11.97,1
141.42,90,16.31,2
173.52,93,14.37,7
319.1,157,6.86,0
240.06,150,9.69,4
131.65,52,15.17,1
201.48,170,9.05,6
267.24,155,9.98,5
240.37,159,9.14,6
177.89,121,12.79,2
195.72,130,13.72,5
218.76,130,6.83,6
268.24,194,6.8,4
245.66,150,5.09,4
150.85,113,12.03,3
334.52,161,8.74,0
208.89,156,10.71,5
272.84,181,5.91,0
154.37,103,14.11,7
204.24,109,15.72,3
157.91,123,13.32,7
122.34,73,15.81,1
153.02,114,8.38,7
231.97,129,5.53,6
250.7,113,12.68,5
137.51,71,19.85,1
163.31,76,19.65,1
222.7,183,10.39,4
157.67,115,10.06,3
141.7,116,10.02,2
248.42,192,11.75,4
312.69,154,6.94,0
210.15,133,8.15,6
156.46,102,11.24,7
278.98,160,6.62,9
282.57,143,4.24,9
321.58,141,6.88,0
231.37,136,6.83,9
169.23,103,16.57,2
178.3,92,12.99,2
155.8,103,9.75,7
176.7,113,13.29,2
191.14,167,6.8,6
297.08,199,11.63,0
128.83,53,17.51,1
259.04,200,9.2,4
271.54,159,3.81,9
171.2,116,10.03,7
315.14,179,8.07,0
167.62,83,13.76,3
236.71,153,14.71,5
228.34,171,5.37,6
152.72,51,17.58,1
194.02,116,15.74,3
212.74,100,15.53,3
212.43,176,6.13,6
184.93,154,8.42,6
261.82,161,9.94,4
239.03,149,13.59,5
142.68,74,14.55,1
161.79,110,10.35,2
244.25,170,7.34,9
178.15,106,11.43,7
157.03,100,16.13,2
109.29,89,13.81,8
130.25,82,19.89,8
219.87,161,5.86,4
244.62,153,7.26,6
332.77,147,7.2,0
258.34,145,6.02,9
175.24,130,17.02,2
271.1,188,7.33,0
229.35,188,9.92,4
170.72,112,16.27,2
227.77,124,8.04,5
288.99,186,6.81,0
307.0,196,10.38,0
155.09,115,13.39,7
208.49,99,11.23,3
142.72,101,12.36,2
220.93,197,7.42,4
297.63,144,4.45,9
142.39,62,13.02,1
215.09,154,7.51,5
103.05,83,11.39,8
157.29,76,10.44,1
176.88,127,13.51,2
253.24,214,8.1,4
157.46,122,11.37,7
154.23,62,12.56,1
141.83,103,10.78,2
285.89,133,5.89,9
153.23,123,15.64,2
145.79,110,12.05,2
219.93,182,8.49,4
277.42,165,8.33,0
144.16,123,16.51,2
313.9,166,7.87,0
142.1,93,16.94,2
217.29,140,8.15,6
103.51,75,14.91,8
178.09,126,8.57,7
147.52,61,15.51,1
266.6,151,12.22,5
270.36,193,11.31,0
173.76,100,13.37,3
170.41,122,16.95,2
109.71,52,15.32,8
236.49,159,8.76,5
275.95,150,6.68,9
192.83,79,15.26,3
146.22,99,8.91,7
167.52,66,15.64,1
204.57,121,5.81,6
109.45,64,18.57,8
174.1,113,8.88,7
147.42,101,14.81,2
249.24,201,6.17,4
242.25,168,6.44,9
108.56,65,19.0,8
184.68,96,15.55,3
251.51,173,11.15,4
158.08,57,18.75,1
248.09,170,5.2,9
220.79,129,14.88,5
128.32,54,12.41,1
207.69,133,10.27,5
120.85,87,14.46,8
153.41,99,12.39,2
171.15,118,14.72,3
130.38,55,11.88,1
177.84,76,8.71,3
134.0,65,17.5,8
142.87,77,15.18,8
181.61,138,9.23,6
167.43,69,18.99,1
196.22,101,14.31,3
198.69,142,11.62,5
245.37,155,8.5,4
119.31,75,12.84,8
121.38,77,18.83,1
254.79,155,3.38,9
131.18,57,11.31,1
178.97,120,13.32,3
142.63,100,14.25,2
161.48,50,12.31,1
113.71,59,16.83,8
173.68,128,11.72,2
155.81,68,18.8,1
266.12,150,3.99,9
126.06,60,15.19,1
137.04,76,11.47,1
337.12,141,6.41,0
233.65,178,9.81,4
238.89,138,6.68,9
161.27,95,12.34,2
243.5,160,5.49,9
151.89,106,16.14,2
229.51,152,6.14,4
142.52,100,11.77,7
245.16,126,7.64,5
101.5,87,18.65,8
148.13,104,15.67,2
320.45,164,9.62,0
244.71,134,5.84,6
159.18,106,13.19,7
141.79,92,9.8,7
176.31,95,10.58,3
159.84,98,11.18,2
158.44,93,8.17,3
249.35,152,5.99,9
142.84,70,12.64,1
247.29,146,3.83,9
239.76,129,9.03,5
246.11,157,8.19,5
164.64,91,10.03,7
227.63,178,8.85,6
177.8,90,9.14,7
169.02,59,18.1,1
228.75,168,9.57,4
256.34,190,6.47,4
251.77,167,7.7,4
163.09,103,10.86,3
219.68,176,11.68,4
248.83,157,6.96,9
111.6,63,17.06,8
158.88,100,12.99,7
236.87,219,11.82,4
247.21,145,7.98,5
170.78,129,9.1,7
250.35,215,6.65,4
147.02,77,19.06,8
249.02,154,7.19,9
149.5,79,13.32,8
173.29,117,12.05,2
180.24,145,5.38,6
214.59,149,13.29,5
188.07,98,10.74,3
268.51,145,5.92,9
114.11,71,16.66,8
145.04,65,11.27,1
194.46,100,9.91,3
172.55,130,10.96,2
185.85,132,13.16,5
252.84,110,13.13,5
298.92,140,5.42,9
245.16,125,12.8,5
162.74,94,17.08,2
197.6,134,7.67,6
139.14,65,15.46,8
203.8,112,8.15,5
139.88,76,11.82,1
144.67,52,14.28,1
208.11,153,7.45,5
147.98,128,17.94,2
232.34,158,8.29,4
295.15,183,9.35,0
250.44,197,9.23,4
140.83,114,15.98,2
217.49,115,8.18,3
146.77,56,14.43,1
149.19,96,13.82,7
153.37,118,15.57,2
204.06,74,12.64,3
104.52,60,10.83,8
211.25,137,12.85,5
168.71,100,13.93,2
204.85,113,13.87,5
222.75,173,7.13,6
264.97,150,7.31,4
344.34,193,9.76,0
151.83,129,8.86,7
284.59,161,5.81,9
207.4,202,11.82,4
155.71,109,10.68,7
125.53,76,16.36,1
238.09,138,4.83,9
173.76,111,13.05,7
206.1,145,8.55,6
300.09,180,6.49,0
228.61,157,8.38,6
210.23,133,7.83,6
274.54,146,3.47,9
229.81,198,5.28,4
155.64,96,13.03,7
106.84,59,11.14,8
285.0,198,11.4,0
292.02,148,4.17,9
227.42,146,9.53,6
112.38,81,14.36,8
312.99,199,10.71,0
161.37,95,14.45,7
142.96,118,16.84,2
181.69,125,12.63,5
217.39,197,8.36,4
210.28,151,13.45,5
272.04,135,3.37,9
306.74,159,8.95,0
167.7,70,9.72,3
199.06,108,11.23,3
167.18,104,14.63,7
270.94,144,5.18,9
158.88,125,9.8,7
276.1,162,7.17,9
185.57,94,12.02,3
153.04,57,15.57,1
100.51,69,12.03,8
153.63,129,14.94,2
124.48,57,17.65,8
269.26,147,9.69,5
227.03,147,8.43,5
344.96,144,11.59,0
140.82,92,8.71,7
182.32,84,11.57,3
237.18,163,7.17,9
280.48,200,11.52,0
163.99,56,19.63,1
345.5,154,9.32,0
210.43,149,7.08,6
175.98,80,9.12,3
281.8,168,5.31,0
122.19,58,18.82,1
153.22,108,10.4,2
142.71,119,14.55,7
344.97,182,5.1,0
288.68,181,7.39,0
137.43,80,10.09,1
167.34,73,12.83,3
215.44,145,7.77,5
165.1,77,14.4,1
179.75,108,17.9,2
198.31,117,13.48,3
161.73,91,17.14,2
103.93,89,19.28,8
256.06,143,9.28,5
204.41,111,11.5,5
131.9,60,12.21,1
201.21,169,11.08,4
239.58,180,8.47,4
237.47,111,8.61,5
167.56,113,10.06,3
287.06,178,6.43,0
204.57,120,15.36,3
124.97,78,18.2,8
203.81,114,13.13,3
145.49,123,14.68,2
193.45,175,5.53,6
218.94,201,10.89,4
234.67,170,6.14,9
147.48,83,17.99,8
163.26,122,12.75,7
311.49,169,9.57,0
235.38,161,6.31,9
136.3,62,15.3,8
147.65,93,14.26,7
227.7,122,9.0,5
166.4,118,8.25,3
247.0,130,3.56,9
145.77,96,10.94,2
194.29,119,8.26,3
218.23,126,11.51,5
134.89,79,18.25,1
253.05,150,10.8,5
148.83,64,13.14,1
143.32,78,17.87,1
176.68,114,14.44,2
175.73,103,13.43,7
319.3,168,11.7,0
146.24,57,15.88,8
214.29,73,11.07,3
126.93,52,12.87,8
230.17,135,11.2,5
179.41,98,8.03,7
260.5,218,8.44,4
259.03,166,10.57,0
242.55,202,8.05,4
280.41,133,3.72,9
201.87,138,14.02,5
152.77,90,9.83,7
166.35,103,8.89,7
281.88,191,7.41,0
177.29,125,12.08,7
146.97,117,8.44,7
165.72,96,10.63,7
175.7,70,14.99,3
190.82,143,9.61,6
153.49,120,11.39,3
319.89,161,6.71,0
171.18,104,12.09,3
152.5,108,13.78,7
100.15,50,18.81,8
264.1,148,7.22,5
323.85,146,6.28,0
220.1,177,6.88,6
172.19,76,11.91,3
148.04,116,10.44,7
159.59,77,15.78,1
189.02,152,5.03,6
211.52,88,11.77,3
292.25,164,6.47,9
207.87,100,14.4,3
172.22,94,15.56,2
264.51,128,9.62,5
150.64,124,10.68,7
145.24,95,14.93,2
203.7,117,10.68,3
201.62,86,13.34,3
167.53,62,16.87,1
345.79,188,9.38,0
214.99,119,10.92,3
196.81,152,10.51,5
210.36,164,5.06,6
113.01,75,12.18,8
260.82,166,4.03,9
266.58,200,5.24,0
208.26,120,13.33,5
132.03,71,14.41,1
305.31,174,11.24,0
217.12,139,9.74,6
267.03,164,6.23,9
126.59,51,18.52,8
202.35,163,8.68,6
289.86,179,11.85,0
237.15,158,6.87,4
243.81,145,3.06,9
278.89,133,3.28,9
236.69,183,9.3,4
181.19,146,7.06,6
116.05,68,16.53,8
151.88,112,11.05,2
104.37,56,19.85,8
208.29,160,9.31,4
299.01,192,9.08,0
197.97,174,8.93,6
297.6,161,7.97,9
217.07,189,8.57,4
179.74,115,13.7,7
236.13,166,9.31,4
226.81,142,13.45,5
229.65,194,6.9,4
132.86,63,10.14,1
142.35,52,15.62,8
280.48,150,5.32,0
209.07,123,5.0,6
104.74,83,12.43,8
130.66,63,18.31,8
237.72,157,5.08,4
140.04,66,12.21,1
262.45,132,4.23,9
218.18,113,8.1,3
238.4,124,8.72,6
200.87,159,5.96,6
244.63,133,5.87,9
168.32,118,15.05,2
287.68,154,7.9,9
208.35,151,5.55,6
258.07,138,7.88,5
144.98,127,10.6,7
269.9,111,7.14,5
165.82,60,19.65,1
169.54,119,13.28,2
172.89,100,13.36,7
142.74,93,10.69,2
292.26,132,5.97,9
253.87,130,3.02,9
341.09,181,9.08,0
217.92,115,9.78,5
185.15,146,8.44,5
339.21,142,6.82,0
228.89,143,7.95,6
186.4,137,8.26,6
331.63,142,9.27,0
232.72,141,11.82,5
233.94,128,11.36,5
196.5,126,6.07,6
206.56,150,12.4,5
240.8,156,11.27,5
128.81,80,19.77,1
244.34,127,13.59,5
149.61,117,12.97,7
111.43,90,19.53,8
147.32,93,10.73,7
145.17,113,13.66,7
339.05,172,7.05,0
237.25,208,5.25,4
214.86,161,9.64,6
152.72,120,13.93,2
259.15,218,9.15,4
144.02,99,11.69,7
208.47,174,5.35,6
158.44,93,10.77,2
215.45,113,15.88,3
183.43,123,7.78,5
262.27,137,12.54,5
154.06,99,12.37,3
177.29,108,10.33,3
133.88,61,13.74,8
208.96,160,10.73,4
298.17,187,8.08,0
239.65,185,8.06,4
179.57,99,14.81,3
176.96,113,15.68,3
141.85,104,12.7,7
151.42,124,10.41,2
181.62,85,11.57,3
165.47,105,11.28,7
146.69,119,10.62,7
261.53,139,9.91,5
144.89,64,18.17,1
143.28,107,12.02,2
169.24,75,11.21,1
195.96,148,10.01,5
349.33,166,9.04,0
224.27,153,9.56,6
179.22,127,9.73,7
187.65,146,5.67,6
127.44,71,13.97,8
207.45,217,11.61,4
100.65,88,16.28,8
167.73,96,12.35,2
227.04,121,7.73,6
160.87,51,17.14,1
146.04,100,15.66,2
349.61,196,9.95,0
131.47,54,19.46,1
148.2,92,14.7,2
102.49,85,16.99,8
172.71,120,8.21,7
266.4,201,7.41,4
219.36,158,9.08,6
195.3,72,8.37,3
137.9,86,17.17,8
198.27,87,8.34,3
180.32,125,13.12,5
263.58,131,4.06,9
157.82,78,16.32,1
266.94,188,6.08,4
286.63,132,4.67,9
249.83,160,14.94,5
227.43,150,12.58,5
234.65,139,9.71,5
240.44,136,12.2,5
203.26,180,9.45,6
242.93,146,9.13,5
158.14,123,10.76,2
347.23,147,6.76,0
131.5,75,14.29,8
225.76,217,7.81,4
144.65,129,14.62,2
201.07,134,6.08,6
223.11,175,11.2,4
219.17,90,9.32,3
169.65,56,16.83,1
286.04,134,4.24,9
242.1,154,8.69,4
274.45,163,9.66,0
158.75,106,17.07,2
243.38,209,11.1,4
184.64,113,14.34,5
114.55,64,10.94,8
155.37,116,9.06,3
113.71,83,14.11,8
131.7,64,15.16,1
274.02,138,5.41,9
147.84,108,10.37,2
209.27,99,11.35,3
241.23,143,6.92,9
218.25,124,13.29,5
151.76,70,17.57,1
204.24,153,5.3,4
193.36,149,7.13,6
176.92,128,11.15,2
155.81,115,13.17,3
172.12,115,11.27,2
127.7,59,11.37,1
349.48,164,8.85,0
150.02,111,12.04,7
215.44,113,11.17,3
254.41,151,6.82,4
132.36,52,14.91,1
150.13,115,15.68,2
264.76,155,7.63,9
135.38,74,19.26,8
312.68,154,10.05,0
158.25,76,19.61,1
279.23,165,9.85,0
233.46,119,8.56,5
171.68,109,9.34,7
239.93,155,9.91,6
156.15,96,17.42,2
234.7,121,7.59,6
116.9,57,17.98,8
151.53,102,8.07,3
150.51,103,10.43,3
157.81,113,13.15,7
166.11,99,13.11,7
142.88,120,13.01,2
109.5,78,16.0,8
267.73,137,7.6,9
147.17,122,16.33,2
161.01,90,11.42,3
205.68,71,13.94,3
153.35,118,15.61,2
269.21,118,8.7,5
164.88,103,17.99,2
101.1,83,15.3,8
185.07,90,13.63,3
172.22,94,15.46,2
334.27,175,5.79,0
251.25,150,10.01,0
102.29,82,14.7,8
236.2,115,10.57,5
188.03,159,8.15,6
167.31,92,12.59,7
237.54,151,5.82,6
176.31,98,10.73,7
193.59,108,14.37,3
151.11,74,10.32,1
312.9,179,11.93,0
145.24,124,14.36,7
200.4,93,14.56,3
134.33,81,11.84,8
156.55,72,10.52,3
170.98,88,8.77,3
133.18,76,11.29,1
123.1,71,16.49,8
225.76,164,7.81,6
265.3,156,11.27,0
128.26,75,15.45,1
148.67,130,14.69,2
245.57,141,9.03,6
248.68,158,7.53,4
141.41,109,14.33,7
168.33,103,10.09,7
125.74,85,15.83,8
115.5,87,15.84,8
136.87,89,19.53,8
197.49,114,14.45,5
151.46,119,10.77,2
252.16,133,3.6,9
139.99,51,18.21,8
142.56,65,15.64,8
229.7,192,10.37,4
211.91,129,8.13,6
106.67,75,19.24,8
250.8,137,9.06,5
195.13,113,14.8,5
284.53,143,4.83,9
349.81,196,7.07,0
156.23,121,8.09,7
237.7,211,8.0,4
146.51,110,9.79,7
280.23,171,8.53,0
179.7,102,14.07,2
296.13,154,4.23,9
304.12,154,7.37,0
206.55,118,8.44,5
139.42,68,12.75,1
283.41,144,4.83,9
150.09,112,10.91,2
174.14,129,11.61,2
287.76,147,5.15,9
206.67,197,7.75,4
185.55,153,13.5,5
221.15,173,6.85,4
161.52,116,10.83,3
187.5,110,13.29,5
216.37,160,13.25,5
239.46,139,10.4,5
116.24,72,17.26,8
288.56,161,10.43,0
176.95,125,10.32,7
208.42,161,11.59,4
180.61,121,9.41,5
270.51,193,6.71,0
189.64,153,9.14,6
204.16,74,15.88,3
146.33,72,15.44,8
245.88,155,7.25,6
140.53,103,8.97,7
141.85,98,13.44,7
262.5,159,7.69,9
202.08,71,13.31,3
131.5,61,12.2,1
126.35,54,10.76,8
206.92,179,8.56,6
307.01,194,6.7,0
111.35,87,13.7,8
239.62,161,7.22,9
146.73,102,17.07,2
183.72,77,14.06,3
142.34,106,12.25,2
252.11,160,8.22,4
152.92,107,10.25,2
206.81,178,5.94,6
201.6,151,8.75,6
198.05,99,9.45,3
186.53,83,11.95,3
147.97,83,19.09,8
254.01,134,7.58,5
167.44,56,15.01,1
199.85,121,8.01,5
279.36,133,5.76,9
183.31,94,14.37,3
290.31,158,10.1,0
294.95,161,6.37,9
165.77,73,19.53,1
153.09,114,13.08,7
115.49,58,19.35,8
154.22,63,18.67,1
282.63,174,9.61,0
261.58,150,8.0,4
216.46,156,8.25,5
245.61,139,7.47,9
146.8,90,13.91,2
159.02,105,14.15,7
251.86,160,4.72,9
172.91,130,9.58,7
147.08,89,10.59,8
153.86,93,13.76,2
191.91,143,11.04,5
154.39,98,16.79,2
104.89,79,12.23,8
221.8,147,7.5,6
218.32,80,9.99,3
239.76,154,5.05,9
103.85,87,15.54,8
157.34,55,17.28,1
170.05,94,15.69,2
290.44,161,5.48,9
238.63,165,6.33,6
203.34,205,9.15,4
180.73,103,9.32,3
233.37,148,4.49,9
255.93,217,8.08,4
129.55,85,14.24,8
235.62,133,6.89,6
240.25,120,13.38,5
240.97,132,5.85,9
107.62,59,15.57,8
226.55,206,5.29,4
244.37,125,7.32,6
246.66,180,6.45,6
195.38,71,9.02,3
196.92,147,7.94,6
200.99,159,8.27,4
331.11,159,11.2,0
144.93,100,11.43,7
152.18,96,12.92,7
173.49,129,17.55,2
172.79,117,13.45,2
174.17,123,14.1,7
172.83,125,11.18,7
207.8,115,14.93,5
181.59,105,12.77,3
242.91,220,10.42,4
122.35,57,16.39,8
139.32,59,14.18,1
156.09,96,16.0,3
160.34,96,9.59,7
138.8,87,13.46,8
247.39,170,5.5,9
258.99,164,4.43,9
154.76,68,15.36,1
169.1,101,17.26,2
134.82,80,19.3,1
182.76,177,9.68,6
174.69,100,16.73,2
179.21,112,13.41,7
249.06,124,7.08,5
148.69,101,9.92,7
266.01,168,7.48,9
231.27,170,3.23,9
242.53,144,3.33,9
164.82,57,10.56,1
248.42,212,6.8,4
196.39,144,9.02,5
160.35,102,13.01,7
187.65,114,7.17,5
180.36,154,13.32,5
140.73,106,8.88,7
129.11,70,15.1,1
229.31,184,11.08,4
147.1,58,11.55,8
180.86,105,12.66,3
306.33,184,10.41,0
205.02,94,10.25,3
231.78,142,4.95,9
156.75,63,18.48,1
268.8,146,3.93,9
183.3,136,7.9,6
124.04,70,16.52,8
283.31,170,3.19,9
123.49,77,12.25,8
256.33,148,3.02,9
295.93,133,4.19,9
227.69,154,10.98,5
162.9,104,9.79,3
161.58,97,13.99,7
179.6,121,11.02,7
240.35,119,13.34,5
213.62,142,5.53,6
339.31,190,6.95,0
144.18,95,10.16,2
274.59,148,5.26,9
169.94,108,8.03,7
245.34,140,6.0,9
284.18,163,6.12,9
156.96,91,14.36,2
158.94,91,10.89,3
257.86,147,7.46,0
275.23,141,6.36,9
121.0,62,13.99,1
145.86,119,17.08,2
163.73,128,8.1,7
172.16,129,9.65,7
153.66,103,12.02,7
161.65,79,10.37,1
296.3,146,5.63,9
252.74,158,6.07,9
217.28,105,9.11,3
345.73,180,6.37,0
182.01,80,15.91,3
118.72,55,15.17,8
240.33,166,8.55,6
201.61,145,9.36,5
174.79,107,13.07,3
144.53,87,18.36,8
280.82,149,4.09,9
179.65,112,12.29,7
201.72,152,14.98,5
192.74,76,13.34,3
262.54,114,8.56,5
193.97,88,15.79,3
264.37,186,9.14,0
160.39,63,18.54,1
141.78,123,17.03,2
145.45,117,12.84,2
129.64,79,14.44,8
157.07,111,13.67,3
225.46,150,7.68,6
303.93,192,11.76,0
197.14,93,13.19,3
210.78,142,9.28,6
181.27,169,6.87,6
187.8,77,12.77,3
158.86,94,14.41,3
118.7,58,18.37,8
139.39,63,18.65,1
256.21,137,4.41,9
287.61,160,4.99,9
236.11,138,5.4,6
135.48,87,12.96,8
152.65,119,12.71,2
187.28,77,13.06,3
222.58,157,7.12,6
250.59,147,7.5,9
134.72,53,12.76,1
162.51,54,14.49,1
262.21,158,5.28,4
193.29,91,12.69,3
269.27,178,6.48,0
157.27,104,12.17,7
172.91,97,14.21,7
254.35,164,4.03,9
161.96,92,15.23,3
305.69,199,7.59,0
223.69,130,8.74,5
120.93,86,18.53,8
254.55,116,9.03,5
230.93,169,6.77,9
175.55,112,15.58,3
164.53,110,12.88,2
334.03,141,8.85,0
165.12,127,16.96,2
282.95,152,5.29,0
131.95,69,13.95,1
229.46,152,11.98,5
134.47,74,16.03,1
227.59,186,10.01,4
197.08,142,13.7,5
161.2,98,15.4,2
157.9,90,15.74,2
207.31,111,10.34,5
119.87,52,12.42,8
169.56,60,12.71,1
264.7,148,9.56,5
150.64,90,11.27,2
189.0,163,7.7,6
240.49,180,7.71,4
265.7,114,8.05,5
256.58,159,13.64,5
173.34,120,8.21,7
205.8,115,12.56,3
234.98,144,9.07,5
180.68,140,7.6,5
148.62,103,16.53,2
193.2,144,8.29,6
144.88,73,12.81,8
232.82,110,12.03,5
156.38,53,17.09,1
270.94,194,5.34,0
163.49,100,13.62,2
264.76,138,5.86,9
152.58,109,14.01,7
141.24,94,8.66,7
202.6,114,10.38,3
307.81,192,7.27,0
157.22,104,14.66,2
233.6,165,9.53,6
113.63,56,10.64,8
203.81,177,9.21,4
124.79,50,11.5,8
275.3,172,9.04,0
154.29,75,19.11,1
242.27,184,7.11,4
157.72,118,9.57,7
160.04,121,15.76,2
208.57,190,5.21,4
123.5,63,14.49,8
323.13,200,7.36,0
101.01,90,15.89,8
200.15,147,11.27,5
211.53,136,12.07,5
258.24,153,10.69,4
171.97,107,9.1,7
248.24,183,10.49,4
164.84,124,12.75,7
182.01,75,14.95,3
150.63,102,13.45,3
259.47,183,8.28,0
123.45,61,16.09,1
313.73,150,5.8,0
203.15,187,9.46,4
220.6,115,12.34,5
233.12,170,5.29,9
234.93,149,4.59,9
279.76,184,7.18,0
204.92,161,5.74,6
100.64,81,10.73,8
155.09,120,10.53,7
230.38,133,6.92,6
145.97,104,14.59,7
236.45,174,5.06,6
292.98,172,11.35,0
165.74,77,15.02,3
158.81,51,14.32,1
228.08,161,7.53,6
201.3,111,11.43,3
198.43,127,7.71,6
116.91,55,18.35,8
208.85,105,11.65,3
266.42,135,6.2,9
216.01,166,8.22,4
146.88,122,17.87,2
275.51,132,7.54,9
256.13,140,6.66,0
104.85,77,17.61,8
159.67,71,13.42,1
220.92,169,5.49,4
251.72,163,4.54,9
229.37,135,7.3,5
202.67,123,6.84,6
100.69,53,10.99,8
276.1,158,5.97,9
151.09,105,14.04,7
269.33,180,10.78,4
164.85,128,14.69,2
282.95,141,9.66,0
337.88,180,11.5,0
155.53,52,15.57,1
259.47,132,7.88,5
173.03,111,11.38,2
230.68,138,5.73,9
151.1,104,10.51,2
137.75,81,14.54,8
263.62,154,8.01,0
213.62,156,6.79,6
191.79,180,9.07,6
173.74,109,14.71,2
317.77,149,7.03,0
211.48,110,11.96,3
256.2,165,5.93,4
148.08,130,12.74,7
177.17,104,10.13,2
301.2,147,8.4,0
159.63,87,13.27,3
231.33,125,14.45,5
153.56,127,14.62,7
192.18,172,5.61,6
108.27,78,17.9,8
248.12,157,8.53,5
159.01,123,13.68,2
252.79,143,9.29,0
144.54,57,18.59,1
181.64,150,8.24,6
147.77,85,16.11,8
148.7,107,12.86,2
152.7,119,8.8,7
240.36,174,6.83,6
260.03,141,10.79,0
236.23,211,8.74,4
149.55,90,12.42,2
173.05,100,15.87,3
253.67,174,7.25,0
103.94,74,14.65,8
233.16,138,9.24,6
146.06,128,11.91,7
143.35,79,10.46,8
142.19,93,10.76,2
109.41,60,13.42,8
156.48,128,13.91,7
191.4,89,11.34,3
276.37,160,3.04,9
261.63,147,9.09,0
199.93,114,9.89,5
246.68,168,3.97,9
141.95,93,13.81,2
268.44,143,8.78,0
165.69,92,10.3,2
154.3,73,8.53,3
166.33,127,12.64,2
269.51,200,10.44,4
189.69,104,10.23,3
209.65,149,7.22,6
197.43,152,9.54,6
252.57,150,7.86,9
180.57,125,13.27,5
136.45,62,13.14,1
185.12,111,11.17,3
162.16,128,16.92,2
236.23,156,4.14,9
195.26,123,6.34,6
256.05,151,7.91,0
147.93,61,12.4,8
290.88,167,3.46,9
219.97,123,15.0,5
270.48,162,6.49,9
238.5,149,7.0,9
140.91,71,12.79,1
299.84,188,10.59,0
167.37,114,11.01,2
263.11,156,4.33,9
233.44,141,11.28,5
159.12,113,14.4,7
262.18,153,10.78,5
163.1,121,14.09,2
257.47,219,6.16,4
161.8,126,10.19,7
161.37,71,9.19,3
128.48,77,10.7,1
158.17,78,15.77,1
157.93,96,12.0,2
241.44,173,7.69,6
170.09,98,14.62,7
250.78,159,5.88,0
201.4,166,9.51,4
143.83,118,8.48,7
166.96,93,10.46,3
170.66,92,9.98,7
212.97,118,11.8,5
248.09,200,9.18,4
123.51,52,14.36,8
268.09,153,6.44,9
242.15,130,3.89,9
214.54,112,7.88,5
119.48,69,15.82,8
220.18,137,10.9,5
194.85,154,5.13,6
142.11,106,12.5,2
218.14,93,9.21,3
145.0,116,10.97,7
181.1,152,7.45,5
148.46,111,9.82,7
108.01,83,11.72,8
252.31,157,7.54,5
126.77,52,13.85,1
218.92,208,7.16,4
289.57,144,4.02,9
236.9,142,14.64,5
124.65,83,16.34,8
212.95,155,6.65,6
193.17,107,8.01,3
295.8,167,5.66,9
146.43,90,12.41,8
195.24,83,8.96,3
152.05,67,10.32,1
219.17,111,12.58,3
129.63,77,17.12,8
212.5,191,9.59,4
104.27,85,15.56,8
280.14,197,10.59,0
191.03,95,11.71,3
135.45,60,15.17,1
321.98,181,6.37,0
184.73,167,5.82,6
143.97,96,8.85,7
254.37,143,7.25,5
229.21,180,9.22,4
172.32,108,11.44,2
208.05,143,7.15,6
299.37,143,7.09,9
143.69,64,13.78,8
208.08,180,8.05,6
211.72,169,6.38,4
276.6,160,4.29,9
119.92,73,17.0,8
145.81,67,11.23,1
129.87,61,12.59,8
233.06,164,3.76,9
316.81,178,8.32,0
291.89,166,7.19,9
287.57,200,9.45,0
288.77,137,7.52,9
167.27,95,10.14,7
216.18,75,9.99,3
269.16,176,7.6,0
266.24,188,8.16,4
298.94,134,7.65,9
189.81,84,10.9,3
190.1,169,7.75,6
258.3,164,3.06,9
273.46,168,4.65,9
159.48,125,10.62,7
132.77,80,18.39,8
154.25,69,11.84,1
176.96,116,12.62,7
157.4,103,15.93,2
179.16,80,14.81,3
194.81,121,14.98,5
177.14,106,10.11,2
226.94,155,5.65,6
130.99,79,15.95,1
150.58,95,11.57,7
209.13,204,5.7,4
108.61,64,16.61,8
158.15,90,9.7,7
241.82,151,7.96,4
206.34,125,11.33,5
178.16,84,15.95,3
131.92,75,11.4,8
158.03,110,14.02,2
156.13,73,19.45,1
247.82,132,5.33,6
238.21,161,10.99,4
226.59,175,7.24,6
145.43,75,10.92,1
165.05,82,11.49,3
187.12,117,8.9,3
272.19,147,4.22,9
161.23,103,8.58,3
295.86,155,7.68,9
174.79,100,11.76,7
137.16,51,15.73,8
173.14,111,15.32,2
194.21,134,5.03,6
187.26,133,7.44,5
148.64,91,14.92,7
265.42,184,6.34,4
160.44,121,17.24,2
156.98,106,13.04,2
249.24,174,7.25,6
214.79,166,10.37,4
205.79,107,14.48,3
174.52,102,12.35,2
203.22,162,9.39,4
141.54,77,12.15,1
157.98,118,13.1,2
219.69,141,12.47,5
162.45,96,11.8,3
157.83,67,13.37,1
229.89,167,5.94,6
247.92,150,7.05,5
171.15,121,11.94,7
157.1,63,13.19,1
249.85,123,7.71,6
189.96,126,9.77,6
218.03,209,5.14,4
141.39,111,16.81,2
199.84,75,9.62,3
131.47,63,14.33,8
177.62,103,14.42,2
213.59,124,10.91,5
261.18,208,11.34,4
145.39,92,14.71,7
201.89,143,8.34,6
150.32,73,17.47,1
279.4,170,11.31,0
171.6,98,12.27,2
168.56,124,8.47,7
273.89,176,5.02,0
254.48,168,10.12,4
262.46,209,9.9,4
247.47,135,11.28,5
236.56,138,8.8,5
218.51,186,10.7,4
121.1,67,15.42,1
148.53,75,17.82,1
124.57,63,16.52,8
195.85,78,9.45,3
153.32,56,18.13,1
154.0,93,14.81,3
313.38,180,10.6,0
163.82,117,8.33,7
172.12,113,8.5,3
267.86,145,14.41,5
230.9,180,11.92,4
136.09,77,19.42,8
214.9,182,10.83,4
198.75,115,10.62,3
211.92,104,14.77,3
251.06,153,5.75,0
146.31,108,12.69,2
157.99,97,13.83,2
342.65,157,9.7,0
309.22,183,5.86,0
260.92,117,7.67,5
144.35,54,12.91,1
101.53,85,17.26,8
148.31,63,10.72,1
164.45,108,14.21,7
146.37,126,11.38,2
191.61,138,9.49,5
161.21,111,12.36,7
135.45,90,10.5,8
282.79,131,4.46,9
157.06,128,15.11,2
149.39,104,14.12,7
156.79,122,13.46,7
221.18,128,9.58,6
104.18,87,15.23,8
301.23,192,7.17,0
259.65,160,8.41,5
149.17,76,11.49,1
244.55,114,10.05,5
190.03,157,7.75,5
329.16,159,10.37,0
148.61,61,12.34,1
167.43,118,8.72,3
153.27,118,17.71,2
167.54,70,13.94,3
195.69,119,15.44,3
142.62,58,18.08,8
230.16,203,8.6,4
208.19,129,6.22,6
162.72,101,16.28,2
230.73,116,10.49,5
146.72,114,14.12,2
167.14,118,12.1,3
117.97,75,18.05,8
141.74,105,13.69,2
123.79,51,10.63,1
254.01,188,11.03,4
264.03,199,10.96,4
271.49,169,5.32,9
237.27,203,9.07,4
267.92,146,7.56,9
179.53,91,14.16,2
212.12,84,8.26,3
282.66,155,6.59,9
168.68,98,8.39,7
213.47,125,6.95,6
314.58,150,7.02,0
139.55,56,10.27,1
209.97,220,8.22,4
190.05,180,9.88,6
151.02,107,11.35,7
143.54,116,17.72,2
183.46,130,8.47,5
161.36,113,8.4,3
232.59,153,14.09,5
226.19,129,11.53,5
190.13,166,5.5,6
250.18,157,8.47,5
168.39,116,9.86,7
234.05,112,7.39,5
230.39,139,12.34,5
160.65,102,8.25,3
112.35,51,14.67,8
163.6,118,9.48,7
184.23,123,10.77,5
223.51,143,11.82,5
162.13,100,11.04,3
250.36,130,7.66,9
156.11,98,14.63,7
155.26,100,14.22,2
162.63,73,18.59,1
152.54,120,10.96,2
159.74,105,17.23,2
150.23,123,17.46,2
230.39,138,9.67,5
318.19,148,5.54,0
194.97,78,11.23,3
172.92,100,17.26,2
307.89,186,5.55,0
312.27,192,6.68,0
286.62,191,10.92,0
272.41,162,6.95,9
296.13,178,11.28,0
133.43,77,18.25,1
208.77,163,7.4,6
248.31,190,5.79,4
143.54,67,10.72,1
164.5,122,12.99,7
267.87,185,5.05,4
120.15,65,17.53,8
156.01,116,10.48,2
139.28,64,18.93,8
147.03,88,18.21,8
240.04,180,8.25,4
122.24,62,10.25,8
266.64,157,5.98,4
342.03,145,6.69,0
126.9,70,16.58,8
264.07,160,4.83,9
238.85,168,5.17,6
295.2,137,6.44,9
162.31,129,11.15,7
264.6,117,13.26,5
203.69,126,7.79,5
235.02,130,4.81,9
143.46,91,16.57,2
156.74,58,11.8,1
265.19,156,6.83,9
244.58,144,7.37,9
152.03,63,15.25,1
243.05,185,10.98,4
239.75,196,9.77,4
251.34,168,8.55,0
206.17,133,9.65,6
294.81,167,5.93,9
169.36,53,17.99,1
241.29,161,6.83,9
167.88,84,10.1,3
125.02,60,16.83,8
146.34,57,14.51,8
226.52,136,7.77,6
172.62,91,14.46,3
233.11,174,8.16,6
143.84,77,15.17,8
117.26,57,13.66,8
230.06,208,9.07,4
244.96,167,4.11,9
312.77,152,11.28,0
263.23,169,8.71,0
248.83,155,3.82,9
265.38,117,9.28,5
143.69,115,15.49,2
320.22,152,6.75,0
239.22,159,7.76,4
134.47,52,10.16,8
139.0,80,18.4,8
228.04,162,6.61,4
131.79,87,19.35,8
155.32,119,10.13,3
202.15,71,14.88,3
238.71,160,5.95,6
325.25,181,9.28,0
146.86,78,16.36,8
148.58,64,15.52,8
153.33,109,12.04,3
160.65,96,10.65,2
116.78,56,17.42,8
147.9,99,12.79,7
251.5,149,4.49,9
120.58,62,12.5,1
264.07,132,3.74,9
122.84,55,14.25,1
128.02,55,13.34,1
112.04,82,18.69,8
156.51,107,11.27,2
170.94,102,12.67,7
281.14,171,10.83,0
103.63,67,14.69,8
157.48,68,12.88,1
143.37,102,16.91,2
157.57,101,8.13,7
224.16,145,10.92,5
178.32,91,12.38,7
228.87,170,9.28,6
145.07,99,12.18,2
162.83,80,16.08,1
236.0,213,8.35,4
269.53,207,5.53,4
163.87,59,14.95,1
225.26,208,8.38,4
157.97,113,12.72,7
124.27,52,13.96,8
105.93,88,19.01,8
150.49,121,13.86,2
141.61,98,15.56,2
237.54,161,6.75,9
211.97,160,9.78,6
199.62,88,10.04,3
228.95,135,12.95,5
267.55,165,11.09,4
211.63,152,5.5,6
151.55,106,14.24,7
170.7,99,9.09,7
174.28,125,17.67,2
257.75,171,9.84,4
116.65,56,16.92,8
232.08,190,6.02,4
164.18,99,17.52,2
160.73,116,13.18,2
249.28,160,11.36,4
222.07,173,8.56,6
170.86,113,13.73,7
205.07,151,8.11,4
145.49,118,10.92,2
310.62,142,5.32,0
122.58,53,17.78,8
294.8,145,7.31,9
212.66,180,5.36,4
173.26,126,14.84,2
256.8,146,5.45,9
164.76,62,12.78,1
103.18,50,17.62,8
185.39,76,10.13,3
166.89,116,13.58,7
198.46,120,5.89,6
144.23,124,12.73,2
200.79,185,11.22,4
206.26,113,11.15,5
259.71,158,4.62,9
213.93,79,9.22,3
134.64,84,13.51,8
122.28,59,16.92,1
258.4,168,3.58,9
289.66,144,5.61,9
184.21,160,5.03,6
187.7,138,11.83,5
133.07,54,14.01,1
147.27,116,10.3,2
266.11,165,3.52,9
226.56,178,5.32,4
142.54,93,16.69,2
155.62,60,16.71,1
203.21,134,12.18,5
289.08,143,6.64,9
133.54,54,18.42,1
252.02,188,7.55,4
224.38,159,12.38,5
244.83,166,7.55,9
146.47,110,14.81,7
146.53,121,16.1,2
154.41,87,9.54,3
177.49,117,8.2,3
221.69,199,8.53,4
296.68,145,7.98,9
246.99,136,3.48,9
191.46,173,9.52,6
100.48,79,15.19,8
144.19,106,12.37,2
211.15,131,14.44,5
211.73,129,11.84,5
118.03,87,16.17,8
137.9,85,11.58,8
120.61,85,10.58,8
263.94,165,9.7,0
221.97,168,9.42,6
202.27,77,9.08,3
209.31,218,10.52,4
293.89,160,7.37,9
297.99,150,6.07,0
159.74,69,15.11,1
173.14,119,12.11,7
294.9,159,7.82,9
206.63,122,5.53,6
148.95,58,18.18,1
218.57,80,12.73,3
125.28,63,11.05,8
144.62,105,13.07,2
205.65,138,5.65,6
177.16,128,17.56,2
207.15,93,15.26,3
243.17,168,9.74,4
141.2,56,10.06,1
161.26,112,8.25,3
276.32,143,3.34,9
234.05,154,10.49,5
157.27,85,8.19,3
243.39,153,5.58,4
213.78,114,9.06,3
176.98,101,10.19,7
192.43,103,9.69,3
264.37,157,13.32,5
167.06,130,11.44,2
259.28,155,6.58,4
262.04,116,8.26,5
146.37,71,13.04,8
240.31,132,3.92,9
167.73,98,12.06,2
189.93,119,8.74,5
150.11,97,11.8,7
143.02,102,14.87,7
237.51,159,8.62,4
208.88,138,7.71,6
169.04,128,8.15,7
217.65,146,11.46,5
257.96,192,11.96,4
193.24,146,7.75,6
233.29,167,6.02,9
117.95,84,14.11,8
269.37,179,8.8,0
169.25,52,16.56,1
219.14,219,7.62,4
167.76,73,15.07,3
273.32,160,7.16,9
198.88,116,14.82,3
127.26,61,15.38,8
176.27,99,12.45,2
180.12,144,7.95,5
195.0,154,8.29,6
159.1,127,13.63,7
143.95,70,14.76,1
231.33,191,11.02,4
128.85,60,12.47,8
255.91,157,7.64,9
130.72,79,14.71,1
142.31,120,13.24,2
232.09,187,11.6,4
213.06,122,10.91,5
115.06,78,14.6,8
142.53,94,11.76,7
216.52,79,12.36,3
284.77,147,10.57,0
142.43,114,13.84,7
299.75,158,7.01,9
228.75,141,9.98,5
193.56,79,14.96,3
325.32,141,5.81,0
171.74,98,12.68,2
128.99,65,19.51,8
206.73,208,9.28,4
205.6,138,9.46,6
141.06,124,17.61,2
155.36,112,11.26,2
306.42,193,9.48,0
230.0,209,9.71,4
304.18,164,9.71,0
148.27,114,11.87,2
129.92,69,18.81,8
241.99,143,5.51,9
255.74,180,9.84,0
243.44,171,8.82,4
346.53,154,7.9,0
132.79,64,16.19,1
218.64,116,12.44,3
154.54,109,11.21,3
297.87,155,6.86,9
203.17,167,10.9,4
252.54,147,4.51,9
148.33,85,16.53,8
171.16,114,13.51,2
141.54,128,10.12,2
131.7,77,13.29,1
162.84,112,17.75,2
227.94,154,7.12,4
144.23,59,16.67,1
230.8,136,4.89,9
171.0,124,8.17,7
246.49,141,5.66,6
143.12,119,8.66,7
156.47,127,8.25,7
316.73,194,9.57,0
206.2,136,7.79,6
131.05,77,16.22,8
232.16,150,9.29,4
218.53,157,7.84,5
297.19,139,7.12,9
213.43,73,12.43,3
189.64,111,11.71,5
177.92,129,13.52,2
216.13,158,11.23,4
329.33,185,6.42,0
192.59,95,13.63,3
132.96,74,13.14,1
217.99,178,6.61,6
157.53,71,14.15,3
229.95,159,6.0,4
206.81,137,6.71,6
268.69,118,14.2,5
202.25,125,7.48,6
167.36,117,10.87,7
243.77,183,6.35,4
261.77,136,11.92,5
140.32,58,10.06,8
224.71,130,10.64,5
175.71,104,14.67,3
279.37,165,7.09,9
265.76,172,10.71,0
238.93,186,7.21,4
128.36,64,11.71,1
249.68,220,10.17,4
128.4,71,12.39,1
149.99,51,13.78,1
149.64,54,17.68,1
206.15,140,7.88,6
254.38,156,3.97,9
106.6,55,15.52,8
266.62,156,6.55,9
198.45,154,8.16,5
151.88,124,9.14,7
190.94,91,10.21,3
262.63,149,7.85,5
265.4,215,11.61,4
239.29,164,5.21,6
210.23,211,10.23,4
317.09,159,5.51,0
247.43,205,9.37,4
145.34,70,13.78,8
254.78,168,8.38,4
195.9,121,9.15,6
173.31,121,8.69,7
281.0,177,8.37,0
159.19,95,10.33,7
287.54,193,11.2,0
286.03,160,9.91,0
268.78,167,7.69,9
196.36,124,9.49,6
100.45,70,11.18,8
171.56,109,10.36,3
148.94,59,13.84,1
153.84,102,17.92,2
288.3,165,5.05,9
177.78,97,12.59,7
185.21,164,9.02,6
170.24,123,15.52,2
177.8,122,12.68,7
163.39,51,17.51,1
106.95,86,15.23,8
177.65,125,8.24,7
196.65,95,14.58,3
146.45,58,14.26,1
304.88,145,6.47,0
146.41,50,11.05,1
152.58,114,13.8,2
151.75,130,14.39,2
151.13,116,10.97,2
208.83,93,8.16,3
249.55,120,5.2,6
219.34,145,8.44,6
175.06,111,10.41,7
240.35,121,6.31,6
254.19,150,9.55,4
150.83,106,17.29,2
231.73,162,6.59,9
165.62,58,12.7,1
237.21,145,14.23,5
139.87,63,14.13,1
282.33,157,5.03,9
137.57,78,17.09,1
252.3,169,4.77,9
138.36,65,18.26,1
239.61,160,9.06,6
156.7,63,13.71,1
166.25,70,10.49,1
141.1,90,14.84,2
144.45,124,14.89,2
158.84,94,9.32,7
257.2,154,9.31,5
283.0,183,5.01,0
136.95,84,14.38,8
281.56,167,7.77,9
126.25,51,10.53,1
153.75,119,15.73,2
174.72,96,11.23,7
153.12,127,8.69,7
228.79,191,11.06,4
137.55,85,12.95,8
213.08,204,5.04,4
121.69,56,13.89,1
288.7,142,6.05,9
217.17,90,12.61,3
265.47,179,8.75,0
297.92,136,6.65,9
216.96,167,5.29,4
173.73,83,8.45,3
199.22,124,7.08,6
127.89,72,17.87,1
264.21,182,6.1,4
231.03,136,4.37,9
209.58,133,8.7,6
168.61,110,17.89,2
193.79,162,5.52,6
242.05,204,5.29,4
212.41,151,8.8,6
293.15,136,6.65,9
105.31,53,17.17,8
154.92,96,13.23,7
145.01,93,12.56,7
324.51,146,6.44,0
228.55,172,8.73,4
123.91,67,12.09,1
273.2,170,6.99,9
161.15,101,16.51,2
199.98,106,9.1,3
149.06,99,11.64,7
175.83,96,9.57,3
202.28,172,5.31,6
276.21,132,6.26,9
255.67,158,4.44,9
148.56,122,10.64,7
232.73,141,7.14,6
108.29,74,13.28,8
173.25,113,13.25,2
276.78,162,6.44,9
144.35,86,17.47,8
249.65,144,5.91,9
145.14,78,13.67,1
225.48,216,9.74,4
197.72,121,9.95,5
329.64,152,6.8,0
166.24,106,12.94,7
197.14,179,9.21,6
175.21,115,17.8,2
269.35,162,4.44,9
313.98,159,9.17,0
248.98,161,6.61,9
141.34,84,17.7,8
166.25,124,9.89,7
144.62,111,10.26,2
290.61,161,3.52,9
271.29,164,6.87,0
148.5,56,10.92,1
265.44,166,5.01,0
135.71,57,11.28,1
206.57,126,8.72,6
112.71,74,11.23,8
152.94,82,10.53,3
155.03,92,12.26,7
149.91,121,13.83,7
276.48,165,3.84,9
240.85,153,9.57,6
191.23,171,9.57,6
234.07,210,5.6,4
165.38,116,13.06,3
242.48,128,5.04,6
173.43,95,14.04,7
160.93,123,17.28,2
172.32,92,9.06,7
194.43,105,11.04,3
158.67,56,10.33,1
178.21,108,17.35,2
267.75,219,8.11,4
150.06,94,11.8,7
128.35,75,14.12,1
142.57,89,12.67,8
260.59,175,10.81,4
121.79,61,10.7,8
213.28,144,12.38,5
132.17,52,17.57,8
164.01,90,9.25,3
161.9,70,17.98,1
219.6,175,6.33,6
128.75,90,19.28,8
232.18,152,4.64,9
254.35,130,10.35,5
228.24,124,8.4,6
169.52,111,12.83,7
204.73,165,6.92,4
235.77,169,5.06,9
264.83,159,5.07,9
287.43,147,4.55,9
243.28,135,9.66,6
190.78,120,11.49,3
209.65,186,8.58,4
265.84,136,4.82,9
202.12,172,5.51,6
166.55,105,17.99,2
154.82,83,11.58,3
155.15,125,14.42,7
243.03,156,6.57,6
141.62,54,18.48,8
248.06,157,6.22,9
184.91,156,6.93,6
143.59,76,13.16,1
115.91,55,12.49,8
126.27,76,18.75,1
139.23,55,10.83,1
188.6,79,15.21,3
188.58,93,8.16,3
244.29,110,7.2,5
213.14,155,5.39,6
145.63,127,13.84,2
123.09,89,16.98,8
120.21,74,14.19,1
260.7,170,6.82,4
261.8,129,11.61,5
269.74,119,8.79,5
130.26,58,13.79,1
216.78,172,5.57,4
223.61,159,5.68,6
150.76,104,15.0,3
119.13,77,14.97,8
148.71,77,14.23,1
208.44,116,8.25,5
256.67,136,4.97,9
267.31,153,9.13,4
124.06,68,13.26,1
181.42,128,14.62,5
192.42,128,7.12,5
245.35,160,10.89,5
204.32,172,6.82,6
148.86,118,17.19,2
140.01,67,10.69,1
162.05,82,10.52,3
297.6,162,4.67,9
163.55,103,16.28,2
156.54,101,14.45,2
230.01,138,8.52,5
187.77,135,9.94,6
260.17,128,12.34,5
174.22,82,14.91,3
251.57,158,10.9,5
123.62,73,11.11,8
131.82,55,15.44,8
217.61,133,9.28,5
137.05,66,18.31,1
171.02,118,14.87,2
263.14,177,5.55,0
130.95,87,17.02,8
159.75,95,17.96,2
125.92,60,10.05,1
168.64,97,15.55,3
159.75,50,12.88,1
170.89,130,17.69,2
256.79,213,10.2,4
258.1,129,12.87,5
282.4,154,9.71,0
249.26,210,6.98,4
245.43,160,5.35,9
105.53,87,19.02,8
146.99,69,18.06,8
291.57,160,4.88,9
265.72,122,10.7,5
255.54,139,7.18,9
164.26,117,11.4,7
153.98,117,12.02,7
292.93,172,10.26,0
239.44,162,10.48,4
262.12,156,3.02,9
144.12,63,12.76,8
215.66,133,7.59,5
245.98,164,9.61,6
328.99,143,11.66,0
199.13,118,14.56,3
276.46,134,7.65,9
269.83,142,4.83,9
216.15,132,13.64,5
237.93,132,3.11,9
160.9,123,10.18,2
170.34,105,14.28,7
178.77,127,9.47,7
214.47,110,8.17,5
268.65,126,8.63,5
299.91,197,7.26,0
322.39,141,8.75,0
233.62,161,6.21,6
251.5,115,7.69,5
152.2,93,10.01,2
159.54,72,15.01,1
210.42,93,12.3,3
107.08,50,15.98,8
192.6,85,13.83,3
136.92,60,17.84,1
278.77,190,9.76,0
234.44,138,6.17,6
160.78,101,11.14,7
165.34,66,12.55,1
173.62,102,10.17,2
156.79,85,11.2,3
150.53,90,12.79,2
167.96,124,10.36,2
156.85,109,11.91,7
158.69,103,11.7,2
267.48,134,9.45,5
131.5,51,16.08,1
179.13,113,15.07,2
313.29,170,6.81,0
195.38,149,7.69,5
122.77,70,16.37,8
167.99,70,13.01,3
276.17,166,7.29,9
212.9,134,9.85,6
145.88,56,19.12,1
172.71,72,8.42,3
139.98,67,13.3,1
329.3,151,10.58,0
248.7,129,9.41,6
265.72,150,11.41,4
190.47,152,5.59,6
126.83,57,17.91,8
124.95,60,16.19,8
334.34,188,10.13,0
165.51,108,13.84,2
152.03,102,15.39,3
239.64,177,6.16,6
119.04,64,18.59,8
126.99,67,15.28,8
141.41,68,11.1,8
194.17,72,14.33,3
119.85,65,17.06,8
129.33,53,16.94,1
140.72,91,10.31,7
213.93,170,7.57,6
219.63,151,5.08,6
129.03,81,18.76,8
344.33,172,8.34,0
211.21,131,10.61,5
125.65,62,11.58,8
171.31,126,16.94,2
268.17,175,8.79,0
125.59,63,14.83,8
296.22,139,6.73,9
204.39,139,7.95,6
241.8,141,6.53,6
286.42,137,4.03,9
149.54,59,19.36,1
198.29,112,13.34,3
153.59,70,14.52,3
163.51,117,11.06,2
141.42,71,15.6,1
159.03,67,10.96,1
238.05,197,10.17,4
150.0,96,10.75,7
282.72,136,3.23,9
167.0,121,13.29,7
222.85,175,10.59,4
161.38,95,12.72,7
158.54,55,13.19,1
210.39,128,9.22,6
142.02,62,15.41,1
235.19,188,6.84,4
287.47,139,5.17,9
153.4,90,12.21,2
208.6,80,13.8,3
175.6,105,9.68,7
251.76,169,4.04,9
175.77,115,10.01,2
161.49,94,11.95,2
144.67,72,16.12,1
168.81,57,19.12,1
148.65,129,16.59,2
184.74,84,8.43,3
228.58,151,7.98,4
251.76,156,4.85,9
231.42,131,9.99,5
125.01,51,12.51,8
263.83,178,10.38,4
240.7,166,6.14,4
214.11,176,11.96,4
213.22,138,7.5,6
105.25,89,15.89,8
203.86,134,6.84,6
139.12,61,12.6,1
286.89,180,5.64,0
146.21,54,11.14,8
136.2,51,15.61,8
281.92,143,6.0,9
315.13,185,10.94,0
131.44,71,18.84,1
169.24,60,10.07,1
213.35,161,6.91,6
271.97,187,6.34,0
126.86,84,17.5,8
148.28,129,14.22,2
143.06,59,15.02,8
172.21,102,13.98,7
135.71,61,18.86,1
112.34,74,10.34,8
251.57,169,10.51,4
300.13,175,9.55,0
220.12,160,9.11,6
144.7,60,11.02,1
154.28,127,17.88,2
217.02,81,15.89,3
266.63,187,7.45,4
251.63,128,14.15,5
231.13,154,9.23,5
164.7,95,11.03,2
204.66,168,9.63,6
138.2,50,12.72,1
159.06,92,8.48,7
167.62,101,9.5,7
210.37,81,13.57,3
310.27,159,6.44,0
113.75,71,12.6,8
246.55,170,4.16,9
231.11,120,9.05,6
242.43,159,8.52,4
325.1,171,10.11,0
250.7,117,7.76,5
198.32,156,14.91,5
168.82,96,8.71,7
325.39,160,8.51,0
162.62,91,15.26,2
201.55,158,5.83,6
144.89,129,11.84,2
164.56,65,16.04,1
242.64,152,11.24,5
292.96,134,3.11,9
147.82,64,16.76,1
244.12,144,6.06,9
153.15,113,12.54,2
190.84,177,5.79,6
126.26,90,10.62,8
336.4,178,6.67,0
228.61,195,9.0,4
192.05,159,9.91,6
194.98,174,7.29,6
147.71,96,14.05,2
143.33,97,17.79,2
154.64,76,19.34,1
323.65,157,10.13,0
305.51,196,11.04,0
323.61,181,9.86,0
179.79,106,10.14,7
211.33,187,11.11,4
150.5,109,9.61,3
149.23,71,13.0,1
145.46,111,15.13,2
168.58,106,11.24,2
297.52,153,5.68,9
237.83,161,4.76,9
105.31,73,14.62,8
133.27,71,11.55,1
256.32,138,7.38,5
178.08,110,8.01,7
166.11,109,14.45,2
245.0,176,7.1,4
282.04,195,10.59,0
163.73,102,13.93,2
167.16,121,13.46,2
235.96,155,13.53,5
104.46,66,15.35,8
218.43,130,10.14,5
299.84,158,4.91,9
182.28,106,12.93,3
174.94,122,8.22,7
143.37,118,11.82,7
154.81,72,10.11,1
142.86,104,8.43,7
208.21,123,7.85,6
214.69,75,15.05,3
235.29,168,7.17,6
231.06,148,7.87,6
235.66,168,7.33,6
268.72,115,11.01,5
277.97,130,3.03,9
156.91,117,16.19,2
162.85,107,10.98,2
136.87,57,12.51,1
222.24,142,7.75,5
202.68,178,9.67,4
288.61,141,8.44,0
142.52,116,12.17,2
220.97,163,10.81,4
223.7,161,9.35,6
194.89,155,7.14,6
230.63,160,7.39,5
165.18,67,10.52,1
242.32,210,8.84,4
101.7,65,16.16,8
198.56,111,9.71,3
138.3,80,18.89,1
129.9,59,19.3,1
171.96,121,17.26,2
200.46,175,9.07,6
143.22,64,11.78,1
222.99,165,8.03,6
255.0,117,13.14,5
252.91,153,7.86,5
263.65,160,10.18,4
258.03,196,9.82,4
239.93,160,7.53,9
113.67,72,15.47,8
269.54,130,6.35,9
143.3,55,15.75,1
259.62,123,8.85,5
143.36,97,14.6,2
168.28,101,12.89,2
155.55,130,8.42,7
269.96,154,5.81,9
168.49,59,17.51,1
160.65,73,17.91,1
274.38,142,7.68,9
252.73,150,14.81,5
334.03,198,8.84,0
170.79,123,12.28,7
202.77,142,7.63,6
277.12,148,7.69,0
314.08,161,10.49,0
161.97,111,14.55,2
144.34,80,19.04,1
265.17,140,6.04,9
144.7,77,18.19,8
322.04,160,6.93,0
216.38,163,8.87,6
156.42,109,12.63,7
190.25,122,11.12,5
128.82,73,18.41,1
170.25,119,12.87,2
132.01,63,18.11,1
232.8,173,7.03,4
309.49,166,6.62,0
272.25,185,8.49,0
265.31,148,7.55,9
170.58,118,14.56,2
181.45,128,10.54,5
132.97,70,14.1,1
289.86,132,3.3,9
234.01,150,4.23,9
290.18,152,3.07,9
140.03,117,8.33,7
141.98,54,15.34,1
332.42,167,5.91,0
251.38,167,6.39,9
208.05,134,9.96,5
236.45,133,7.61,9
155.26,97,13.32,2
165.6,115,8.07,7
348.46,173,5.35,0
188.46,159,7.16,6
146.88,82,15.84,8
284.72,135,5.92,9
315.51,157,8.81,0
263.34,142,11.19,5
194.64,147,9.73,6
212.04,199,9.5,4
243.22,139,5.83,9
292.86,156,8.83,0
167.52,124,9.96,7
286.65,131,4.98,9
203.41,116,14.7,5
288.12,187,8.64,0
144.79,92,13.73,7
266.05,160,7.46,4
179.6,71,10.09,3
234.71,145,13.01,5
189.93,176,6.09,6
138.45,60,10.35,8
164.7,118,11.78,7
141.88,99,11.8,7
200.27,159,9.85,4
142.29,99,13.98,7
257.08,111,12.19,5
246.76,152,9.65,4
277.61,169,5.13,0
177.09,90,14.12,2
302.5,186,9.74,0
229.55,175,7.1,4
144.81,56,19.36,1
201.35,130,8.57,6
189.14,96,15.81,3
230.82,216,8.14,4
140.77,77,16.75,8
172.79,94,12.93,2
144.09,70,15.27,8
216.65,151,9.56,6
190.51,130,6.91,6
254.33,130,13.46,5
176.2,104,16.42,2
253.31,176,9.51,4
203.36,121,11.82,5
168.3,64,11.64,1
234.62,124,8.49,6
197.39,152,6.34,6
151.42,81,10.06,3
172.04,104,14.69,7
240.05,213,6.39,4
151.27,117,14.75,3
122.55,56,15.73,1
244.0,178,9.77,6
157.72,130,9.51,7
342.03,177,5.16,0
162.22,114,11.31,7
105.23,53,12.36,8
158.46,103,16.59,2
223.91,205,5.01,4
278.32,130,7.08,9
173.32,109,10.19,7
125.2,78,14.18,1
183.96,72,11.82,3
258.14,219,10.33,4
138.58,51,17.54,1
130.96,67,18.76,8
144.42,109,9.1,7
173.77,121,15.44,2
247.82,128,13.75,5
254.53,167,10.17,0
192.62,117,13.57,5
139.32,83,17.64,8
219.16,219,9.59,4
207.4,97,13.3,3
255.37,203,10.03,4
165.33,64,13.14,1
154.26,100,11.4,7
252.82,128,7.3,5
145.15,57,10.31,8
174.98,111,12.48,7
348.38,152,6.55,0
170.19,101,14.3,2
296.12,141,7.4,9
138.2,58,18.87,1
157.16,103,12.34,2
168.82,109,15.51,2
160.47,101,9.16,7
237.32,128,8.3,6
257.0,149,10.8,5
230.69,155,12.63,5
156.32,92,11.94,2
184.05,155,9.64,6
201.4,134,12.85,5
103.27,67,14.47,8
148.39,123,14.89,7
215.84,206,7.21,4
268.51,130,13.46,5
154.78,83,15.25,3
152.43,104,16.29,2
128.86,68,19.23,1
186.3,114,15.96,3
221.59,130,7.73,6
256.08,149,8.3,5
205.93,142,9.27,6
327.76,165,9.38,0
128.98,88,12.08,8
173.51,118,13.96,2
155.73,59,13.25,1
265.58,193,8.07,4
169.68,92,12.1,2
163.99,110,12.13,3
213.44,164,9.46,4
335.74,152,11.55,0
218.7,133,9.44,5
207.24,127,9.65,6
152.52,50,15.61,1
259.07,172,10.24,0
176.27,127,16.71,2
180.79,124,9.09,5
144.37,52,18.4,8
304.56,164,11.34,0
276.18,154,7.11,9
130.98,74,18.17,8
230.78,171,6.89,4
142.34,99,13.23,2
263.81,167,5.25,9
198.93,116,12.96,5
189.43,152,14.06,5
226.96,163,7.34,4
163.22,109,15.23,2
257.85,135,5.18,9
249.49,162,6.29,9
153.02,97,13.77,7
335.15,187,11.57,0
235.13,122,11.77,5
220.47,136,5.91,6
251.06,159,7.71,4
143.2,103,9.73,7
320.51,177,5.49,0
228.61,138,7.86,5
160.06,129,13.25,7
323.62,149,8.1,0
192.42,93,14.0,3
124.42,68,18.76,1
244.1,207,5.84,4
138.39,66,19.44,1
150.91,99,13.6,7
237.09,210,11.02,4
169.95,100,12.04,7
259.73,171,10.87,0
142.55,54,11.87,1
187.81,176,5.67,6
166.26,116,15.7,2
146.34,79,17.66,8
122.65,51,13.8,8
240.76,157,7.15,9
267.3,146,3.82,9
121.04,63,15.83,1
201.08,132,8.21,5
235.11,142,5.92,9
246.58,129,12.27,5
230.01,187,10.79,4
271.87,152,9.63,0
241.68,143,5.88,9
179.73,121,16.24,2
252.46,130,3.94,9
141.39,98,12.67,7
195.24,152,11.76,5
121.82,75,14.06,1
314.74,152,8.47,0
175.63,102,12.3,2
152.51,103,13.65,3
110.84,89,14.84,8
208.25,79,9.74,3
236.55,151,5.58,9
155.16,107,16.19,2
118.68,71,11.78,8
303.21,162,7.12,0
140.25,129,10.47,7
143.26,123,11.95,7
154.73,104,16.97,2
191.79,173,5.47,6
110.95,60,19.78,8
249.91,174,5.83,6
224.89,127,11.24,5
219.62,167,8.38,6
290.58,193,11.88,0
162.86,117,12.58,3
147.53,90,13.12,7
160.64,97,17.24,2
258.38,203,11.58,4
138.24,66,14.63,8
158.04,97,8.5,7
149.04,111,17.29,2
238.98,142,7.43,9
152.8,79,13.93,1
191.49,151,8.92,6
232.63,142,7.73,5
197.6,120,11.83,5
258.04,148,4.1,9
215.17,180,5.68,4
181.85,79,14.4,3
161.11,99,12.08,7
180.79,136,8.56,5
164.69,113,11.27,3
219.73,158,9.14,5
163.09,128,11.02,7
136.3,75,10.46,8
295.4,136,3.64,9
144.2,116,17.27,2
237.15,143,12.39,5
115.34,88,14.73,8
142.94,83,16.43,8
104.78,74,15.79,8
234.46,162,9.2,4
170.89,109,12.32,2
134.88,85,11.51,8
248.05,153,3.81,9
198.63,124,5.86,6
275.92,152,5.81,9
156.09,129,14.89,2
279.73,168,8.49,0
234.57,146,9.59,5
164.87,112,13.79,2
134.57,71,12.25,8
194.88,97,9.3,3
130.29,63,16.68,1
234.38,173,7.6,6
215.09,87,10.81,3
178.81,101,13.16,2
170.31,107,15.97,2
177.07,112,11.91,2
212.17,105,14.03,3
207.49,163,8.26,6
164.41,127,13.47,2
256.34,199,11.15,4
178.55,72,8.94,3
204.98,145,9.09,6
173.67,111,13.45,2
150.94,107,13.46,7
219.54,120,8.49,3
234.36,138,4.3,9
280.23,154,5.62,0
158.73,106,13.72,7
205.27,97,13.36,3
136.03,81,10.43,8
123.54,50,14.7,8
159.63,72,8.74,3
175.86,103,10.67,7
263.37,179,7.3,0
207.82,93,14.41,3
204.71,151,6.81,6
171.31,127,14.93,7
316.56,151,6.51,0
244.51,169,8.53,6
234.09,131,7.98,5
241.51,132,6.51,6
144.19,95,13.56,2
124.87,56,14.51,1
203.7,78,15.47,3
161.85,98,14.0,7
167.12,104,12.65,2
339.61,188,6.77,0
150.3,114,11.28,7
194.66,102,15.77,3
115.21,67,18.92,8
161.14,118,11.83,3
120.63,69,18.06,8
217.87,144,8.74,6
264.7,139,4.42,9
150.1,82,10.99,3
242.46,135,7.96,9
210.58,153,8.07,4
220.14,121,9.82,6
200.25,171,9.5,4
280.22,135,4.97,9
228.16,131,12.78,5
254.03,174,11.31,4
228.46,203,10.77,4
172.37,92,14.91,7
168.13,57,12.33,1
307.35,155,11.62,0
151.46,112,11.6,7
171.97,100,10.5,3
314.58,191,9.32,0
116.21,82,11.86,8
107.83,74,14.75,8
141.91,112,9.57,7
179.9,128,12.59,2
167.09,103,11.79,7
154.59,122,8.73,7
242.79,136,3.11,9
250.86,142,5.75,9
189.21,115,11.72,5
174.63,128,10.89,7
126.85,79,14.19,1
143.13,112,11.88,2
128.58,77,16.31,1
257.29,214,11.9,4
151.45,61,13.16,1
160.6,99,8.51,7
107.71,55,12.14,8
176.32,77,11.81,3
181.78,83,12.29,3
217.53,110,14.45,3
228.3,209,6.75,4
254.55,126,10.69,5
275.23,183,11.63,0
143.18,80,19.23,8
132.16,52,18.23,1
196.38,106,12.5,3
302.17,178,5.47,0
207.22,152,11.2,4
232.08,173,6.56,4
195.87,154,9.14,6
288.01,165,10.54,0
270.45,166,4.44,9
238.78,153,7.88,6
151.64,112,13.57,7
145.29,120,10.11,7
185.66,79,14.26,3
258.44,182,6.02,0
142.83,70,12.64,1
226.93,121,6.27,6
256.75,170,4.5,9
223.6,132,6.53,6
157.78,113,13.94,2
225.7,153,10.47,4
159.09,109,13.98,2
226.36,166,7.68,6
140.15,125,9.19,7
175.01,121,12.47,2
239.4,143,6.37,6
300.23,155,8.42,0
167.49,108,14.38,3
242.06,138,7.99,6
231.5,166,5.37,9
167.33,119,10.27,2
124.6,60,18.45,8
218.41,87,9.82,3
243.98,121,7.78,5
280.24,195,5.12,0
149.32,90,17.05,8
224.63,136,7.16,6
130.76,71,19.07,1
190.9,141,13.86,5
262.0,157,5.79,4
274.12,166,6.92,0
133.73,89,10.93,8
264.59,127,12.29,5
153.85,110,10.95,2
142.65,83,15.54,8
154.8,65,19.76,1
120.23,82,17.8,8
169.96,102,12.47,7
335.06,197,9.88,0
159.96,79,16.16,1
211.47,156,8.67,6
189.39,116,13.61,3
124.33,75,10.59,8
107.56,50,19.96,8
140.89,126,16.51,2
218.27,142,7.6,5
195.41,145,11.15,5
181.42,75,12.56,3
260.94,150,3.43,9
340.46,162,10.55,0
139.34,58,15.66,1
168.45,108,11.97,7
249.24,171,8.49,6
114.46,77,14.51,8
132.16,85,11.13,8
114.51,64,14.06,8
158.4,73,16.35,1
195.71,120,9.06,5
202.28,144,7.16,5
141.2,108,13.38,2
146.05,89,16.38,8
117.38,70,12.78,8
145.71,63,19.0,1
147.29,126,13.14,7
239.76,134,10.62,5
184.21,141,9.81,6
315.31,175,9.54,0
270.02,143,3.15,9
199.23,135,8.83,6
202.22,92,9.09,3
286.12,130,7.44,9
208.58,165,9.21,4
297.8,139,3.75,9
234.35,195,9.52,4
129.85,69,13.51,8
171.98,92,10.12,3
238.7,152,12.62,5
122.36,90,18.17,8
181.29,79,13.48,3
325.74,189,11.84,0
329.15,166,6.94,0
326.76,150,8.82,0
167.37,122,15.71,2
106.09,52,19.69,8
145.11,92,12.2,7
149.51,65,13.28,1
143.52,109,16.32,2
198.63,114,11.21,5
146.56,124,13.1,7
281.02,178,6.13,0
168.96,129,17.82,2
186.69,138,5.18,6
201.66,153,8.51,5
269.32,191,6.03,4
235.22,156,11.73,5
160.76,63,10.14,1
253.33,132,6.47,9
131.0,52,13.35,8
187.01,140,8.24,6
163.31,82,14.36,3
251.85,143,10.95,5
129.63,51,13.47,1
142.58,119,10.41,7
150.31,100,9.65,7
166.4,121,14.7,7
227.49,173,11.23,4
174.7,93,10.73,2
127.95,80,19.23,8
169.47,121,13.63,2
179.25,116,13.87,3
133.59,80,19.71,8
206.07,152,13.35,5
173.74,114,10.22,2
155.85,108,15.98,2
153.61,52,11.87,1
292.45,152,6.59,0
196.94,155,7.83,6
168.19,112,10.47,3
243.18,213,11.96,4
296.79,161,3.03,9
225.29,157,9.26,4
317.31,148,6.05,0
266.67,209,10.17,4
298.2,142,6.36,9
171.88,127,12.58,7
108.07,73,19.28,8
215.82,179,9.14,6
165.92,110,8.95,7
257.73,130,12.47,5
166.03,80,13.77,1
187.42,138,10.78,5
169.35,100,17.62,2
213.37,96,15.72,3
218.27,162,6.85,4
217.31,98,12.34,3
187.14,140,10.51,5
210.01,157,13.33,5
269.13,163,7.85,4
142.88,98,12.43,2
291.22,145,6.46,9
200.14,111,8.34,5
247.09,154,6.33,6
130.06,50,19.86,1
337.35,142,8.16,0
148.22,90,13.58,8
239.04,135,11.13,5
277.99,173,6.0,0
169.37,100,17.64,2
176.88,124,14.88,7
166.59,100,8.72,3
180.88,142,11.21,5
235.1,164,10.61,4
191.71,82,9.39,3
192.38,156,7.28,6
130.58,73,10.85,1
156.9,53,11.21,1
181.38,115,11.76,5
162.76,104,12.39,2
219.94,180,11.43,4
305.27,200,6.1,0
124.1,87,18.29,8
177.25,120,9.06,7
280.51,158,7.4,0
301.74,163,11.57,0
246.62,159,10.54,4
167.92,106,8.14,7
107.29,81,13.76,8
168.98,128,9.84,7
230.51,145,10.57,5
285.55,199,5.45,0
119.23,81,12.18,8
227.52,127,12.92,5
140.66,81,12.35,8
155.89,62,18.44,1
120.16,73,14.76,1
180.44,173,8.78,6
225.61,130,8.85,6
145.06,76,10.46,1
191.17,140,7.4,6
110.18,88,11.32,8
114.86,66,19.96,8
230.22,127,13.4,5
146.3,62,12.98,8
169.68,73,11.43,3
194.17,118,14.34,5
246.4,159,8.65,5
237.36,138,5.77,9
155.41,124,11.84,7
149.79,50,13.65,8
230.69,198,7.74,4
202.93,131,8.19,6
147.14,59,19.42,8
255.84,183,8.78,4
235.82,141,6.38,6
185.4,91,11.38,3
192.04,170,8.19,6
117.27,85,16.5,8
154.69,107,10.04,3
256.99,175,7.22,0
215.99,129,5.78,6
264.99,215,8.84,4
341.8,160,5.67,0
176.42,118,13.37,7
158.02,52,12.57,1
262.51,142,3.02,9
124.34,72,13.79,1
261.74,174,8.83,0
241.92,199,9.6,4
203.79,178,10.44,4
232.83,176,7.93,6
245.51,122,13.9,5
211.5,145,10.78,5
147.12,96,10.66,7
224.91,170,5.73,6
258.55,188,7.28,4
269.57,202,6.02,4
265.31,137,7.38,9
203.25,183,8.27,4
282.05,143,6.75,9
270.69,167,7.02,9
176.38,123,13.6,7
269.93,137,3.24,9
187.07,97,13.71,3
299.06,155,3.35,9
248.63,141,10.86,5
148.83,105,10.33,7
243.87,179,6.59,4
167.92,116,17.63,2
233.57,152,6.49,6
218.49,77,12.82,3
152.08,105,13.06,7
223.42,153,7.82,6
178.61,114,14.22,2
283.83,143,3.64,9
234.61,154,9.15,4
237.97,132,6.1,6
202.2,96,12.81,3
239.95,193,7.69,4
144.62,122,11.38,7
228.52,121,5.99,6
260.87,136,6.77,9
146.84,77,17.48,1
133.65,75,10.76,8
247.68,163,5.11,4
253.25,157,14.18,5
111.93,50,12.11,8
236.38,164,9.14,4
156.91,113,12.38,7
215.13,201,5.34,4
116.79,74,15.66,8
192.55,141,8.45,6
109.7,60,14.06,8
262.63,116,7.6,5
200.4,150,7.22,6
216.95,154,6.07,4
228.76,159,6.81,4
226.79,129,13.01,5
175.62,108,8.08,3
159.49,105,12.74,2
128.93,76,10.83,1
132.13,79,19.08,8
249.83,152,7.55,6
133.34,69,16.72,8
162.21,115,10.8,3
143.15,55,19.9,1
283.96,168,6.89,9
211.97,88,15.8,3
245.54,192,6.61,4
170.08,70,15.19,3
177.86,128,13.91,2
282.19,139,4.84,9
178.09,93,12.21,7
143.63,62,15.75,8
298.07,155,7.87,9
276.3,157,4.74,9
206.0,199,5.33,4
253.58,218,6.23,4
349.77,148,11.01,0
234.77,149,7.53,9
188.35,118,15.73,3
174.72,106,14.01,3
166.94,96,10.06,2
147.46,80,18.5,8
212.17,192,10.41,4
166.36,94,11.04,2
113.7,61,13.86,8
149.0,110,10.49,2
160.02,83,13.92,3
253.41,147,3.86,9
173.17,98,13.72,7
141.22,74,17.79,1
153.95,90,8.02,7
147.1,90,13.63,7
184.74,113,10.31,3
259.66,119,11.73,5
234.24,164,9.15,4
108.29,71,18.26,8
247.15,161,6.22,6
151.21,110,8.3,3
212.54,178,10.88,4
267.83,157,13.41,5
198.29,155,14.14,5
294.91,136,5.54,9
161.32,118,10.74,2
209.69,149,7.93,6
166.95,106,12.51,2
109.06,64,12.38,8
122.56,76,18.22,1
187.97,103,12.36,3
138.92,69,19.77,8
304.41,150,8.63,0
196.63,132,7.95,6
311.57,140,7.35,0
157.13,92,12.14,7
161.04,122,17.2,2
125.49,64,15.05,1
314.06,167,11.77,0
103.45,61,16.14,8
182.24,92,12.09,3
175.76,108,15.06,2
227.81,122,8.39,6
143.72,99,16.46,2
216.43,203,9.46,4
293.37,170,6.77,0
169.28,94,14.2,3
155.26,96,11.42,2
259.42,159,7.33,9
263.51,136,6.05,9
220.24,200,6.56,4
150.9,98,8.96,7
227.06,140,11.58,5
121.18,65,19.54,1
223.77,179,10.68,4
185.03,97,9.39,3
168.87,86,13.11,3
208.57,120,8.84,3
147.65,79,16.87,8
229.77,149,13.16,5
214.9,198,5.54,4
110.8,51,12.63,8
163.0,92,8.14,7
153.19,105,11.17,2
288.21,132,3.72,9
136.61,50,10.95,1
333.86,157,11.52,0
270.42,146,7.38,9
123.57,90,15.2,8
232.61,127,9.56,6
237.14,153,9.09,5
193.64,179,8.3,6
174.0,101,13.43,2
249.87,165,3.26,9
283.81,169,11.95,0
190.98,88,11.33,3
217.53,179,6.08,6
267.3,136,8.74,5
152.01,127,12.03,7
223.91,173,9.89,4
154.65,128,11.61,7
143.04,126,12.58,7
256.03,118,12.97,5
167.36,129,11.4,2
231.34,133,11.36,5
172.77,111,12.05,2
125.63,71,13.82,1
147.59,112,13.02,2
225.96,160,11.43,5
229.28,194,5.56,4
182.58,116,12.44,3
216.09,125,9.52,5
281.21,167,6.97,9
170.27,95,14.61,2
217.27,116,7.3,5
195.56,178,5.31,6
205.88,179,6.2,6
140.74,92,10.68,2
128.82,77,11.53,1
165.53,117,13.55,3
241.79,161,4.24,9
249.78,119,13.9,5
131.44,68,17.28,1
188.05,149,7.73,6
232.17,140,13.56,5
233.04,175,7.21,4
171.77,110,11.0,2
174.66,115,11.06,2
190.32,95,11.63,3
192.95,93,12.51,3
175.53,94,10.63,2
151.39,97,9.29,7
200.19,114,12.12,5
157.27,76,12.5,1
167.32,122,12.7,7
219.56,127,6.12,6
153.17,104,15.31,3
224.32,207,7.29,4
319.85,176,11.69,0
294.41,170,4.52,9
255.63,147,3.65,9
208.82,113,15.79,3
126.28,79,10.3,1
289.38,163,6.08,9
299.11,175,11.88,0
149.33,78,18.04,8
202.78,167,8.44,6
163.16,103,12.57,3
265.1,164,5.29,9
241.82,155,5.93,9
166.07,74,15.13,1
210.81,165,9.47,4
152.77,93,14.17,2
118.31,62,17.17,8
161.41,109,13.48,7
169.3,126,11.85,2
253.34,149,13.53,5
144.94,100,10.46,2
248.18,134,4.23,9
293.24,168,5.82,9
217.03,217,6.47,4
146.6,102,12.53,7
279.28,152,3.2,9
167.45,110,14.4,7
140.7,102,13.48,2
173.21,104,13.03,7
301.59,198,5.33,0
336.49,168,11.5,0
187.72,127,7.33,6
199.97,138,9.15,6
166.17,114,13.24,3
126.25,72,18.44,8
266.43,159,11.51,0
210.4,109,8.06,3
150.14,97,8.07,7
248.33,118,7.37,5
180.84,73,12.8,3
216.96,91,13.94,3
105.17,79,13.79,8
281.75,162,6.38,9
156.84,104,10.92,7
297.79,147,3.34,9
211.32,127,10.06,5
238.83,139,7.64,5
265.1,136,3.55,9
209.17,146,7.99,6
189.91,102,10.65,3
291.54,162,7.11,9
130.68,75,16.58,1
157.97,130,12.02,2
212.88,169,5.42,4
205.47,190,11.11,4
158.25,76,19.42,1
196.19,125,10.06,5
341.18,179,5.67,0
231.55,154,13.19,5
126.5,73,18.65,1
246.5,145,6.17,6
201.27,76,14.02,3
172.58,88,11.7,3
228.21,176,8.67,6
117.05,75,18.26,8
237.74,169,7.96,6
164.17,122,14.7,2
222.49,186,8.42,4
116.97,87,13.36,8
208.89,148,7.9,6
285.62,163,7.83,0
104.65,51,19.36,8
281.02,165,11.44,0
161.39,85,13.34,3
247.93,123,5.41,6
234.67,219,11.54,4
213.2,176,9.64,6
196.5,134,10.02,5
320.89,199,11.81,0
269.57,159,8.11,5
158.83,108,15.37,2
264.7,155,11.36,0
203.77,153,8.59,5
310.55,192,6.63,0
234.49,170,9.07,6
122.4,69,11.17,1
334.66,157,10.16,0
196.61,110,14.47,3
136.3,57,17.04,8
265.69,213,9.16,4
151.79,107,16.61,2
110.35,63,19.22,8
168.14,124,13.97,2
132.87,85,10.91,8
124.59,52,18.42,8
118.05,55,19.32,8
163.84,109,12.48,7
220.38,171,9.18,6
158.54,106,10.32,2
169.0,113,9.91,3
150.18,127,13.88,7
275.35,183,5.58,0
299.94,163,7.09,9
156.84,114,11.72,2
187.39,71,15.06,3
215.98,169,7.52,4
204.81,103,11.17,3
158.05,96,10.58,2
212.58,121,8.4,5
149.11,116,8.47,7
125.11,71,14.49,8
264.6,132,6.27,9
263.26,213,6.45,4
246.87,153,7.3,9
233.24,170,11.25,4
250.66,141,9.18,5
213.47,119,10.04,3
259.97,159,8.56,4
211.88,130,8.37,6
201.36,108,9.44,3
134.97,75,15.09,8
170.89,112,13.78,3
165.63,105,10.53,2
190.74,120,14.76,5
343.55,145,8.55,0
152.69,96,8.58,7
164.71,109,8.47,3
170.92,107,17.99,2
206.06,175,8.56,6
252.52,126,13.28,5
127.36,63,11.49,8
240.97,138,8.72,6
262.29,193,11.49,0
130.27,69,19.96,8
236.18,134,8.68,6
329.38,168,6.72,0
271.8,194,10.63,0
194.96,145,9.53,6
222.36,143,8.22,6
152.39,105,11.48,2
169.41,70,14.21,3
290.81,150,5.31,9
251.51,117,7.95,5
126.83,61,13.6,8
226.91,157,11.47,5
138.25,71,16.4,1
242.34,121,7.14,5
150.74,67,12.61,1
285.35,192,6.49,0
162.26,121,10.37,7
255.96,134,7.58,9
137.78,65,10.77,1
158.13,112,11.07,7
254.25,171,8.57,0
212.49,106,10.3,3
185.11,98,9.31,3
239.29,142,5.19,9
210.17,116,9.0,3
200.17,139,14.89,5
160.29,70,11.28,3
229.15,199,5.59,4
147.62,53,13.2,1
241.14,124,9.63,5
239.39,129,7.73,5
304.06,153,11.82,0
226.08,170,5.28,6
225.8,167,8.64,6
123.73,71,13.68,8
141.0,130,16.47,2
177.27,92,15.69,2
159.99,118,14.35,7
170.38,108,11.23,3
137.31,71,12.97,8
230.06,110,11.17,5
192.36,82,12.69,3
163.64,67,16.32,1
119.51,54,12.88,8
108.24,51,17.59,8
244.03,180,9.89,4
321.88,157,7.5,0
238.0,160,10.58,4
230.26,144,7.06,5
131.23,75,18.22,8
223.65,162,5.3,4
137.83,59,16.67,8
185.21,149,6.4,6
144.33,90,17.42,2
131.37,80,18.85,1
205.42,75,14.63,3
175.24,127,13.49,7
142.88,130,11.65,2
189.27,110,13.3,3
193.44,132,7.37,6
178.54,124,9.39,7
177.3,95,15.59,3
183.24,151,9.34,5
174.33,93,14.86,2
201.48,188,10.5,4
158.59,96,12.24,2
240.68,155,5.17,4
144.36,102,12.52,7
173.05,86,15.83,3
323.17,165,5.45,0
162.06,126,12.71,2
157.63,109,13.87,2
127.36,72,12.15,8
232.64,122,9.99,6
305.05,200,11.76,0
117.43,50,15.61,8
144.56,79,19.14,8
153.72,110,9.25,7
155.52,108,10.23,2
232.18,157,5.82,6
164.55,96,10.57,7
346.14,161,6.1,0
290.17,165,7.82,0
285.07,178,9.65,0
286.53,159,7.5,9
162.87,76,12.19,3
190.78,173,6.86,6
192.04,157,7.9,6
161.13,94,15.94,2
252.39,195,7.28,0
237.42,162,4.93,9
240.09,145,9.82,6
201.23,156,5.4,4
156.9,117,17.01,2
155.6,103,11.76,3
148.12,118,14.49,2
100.49,80,10.68,8
164.68,109,8.95,7
240.8,147,6.78,9
164.16,97,15.9,2
142.21,113,12.82,7
152.31,105,16.08,2
162.35,105,14.04,7
196.66,102,12.05,3
340.31,167,9.23,0
136.1,71,18.16,1
252.8,163,6.86,4
269.0,202,11.88,4
214.26,213,8.73,4
162.7,61,15.57,1
238.79,176,8.94,4
169.71,119,12.1,2
173.22,121,15.06,2
178.65,98,13.75,2
198.18,118,14.64,5
200.13,93,15.39,3
184.81,134,14.78,5
145.56,108,10.6,7
255.29,157,13.38,5
123.42,50,12.18,1
151.16,115,8.95,7
238.68,167,4.98,9
161.58,95,12.7,7
294.83,167,6.84,0
142.83,65,10.99,1
119.79,87,12.56,8
160.01,63,19.89,1
246.99,145,7.48,6
257.26,155,5.68,9
158.83,121,16.53,2
262.29,183,7.4,0
290.4,147,5.48,9
277.36,162,5.03,9
239.53,153,10.99,5
242.58,169,11.23,4
179.15,99,13.92,7
